%chk=9d-AuCu.chk
%nprocshared=8
%mem=6GB
# opt freq=noraman upbepbe/gen empiricaldispersion=gd3bj pseudo=read
scf=maxcycles=1000

9d-AuCu

0 2
 Au                -0.18721800   -0.78307700   -2.27167300
 Au                -0.20033300    2.64276900   -1.08145900
 Au                -3.05308600   -1.27964800    0.72845800
 Cu                 3.02483700    0.07866400    0.78848100
 Cu                 0.70467000    0.35697400   -0.02184000
 Cu                 1.74422500   -1.72657600   -0.75066300
 Cu                 1.95346400    2.40892200    0.58946000
 Cu                 1.26499700   -1.58790500    1.64259900
 Cu                 1.28305900    0.83683800    2.44414300
 Cu                -0.50666300    2.10008700    1.39564800
 Cu                -1.73949200    0.57633400   -0.48665400
 Cu                -0.65140200   -1.92272700    0.03079600
 Cu                -0.94739900   -0.29939700    1.93393700
 O                  5.08078100   -3.29101100    0.29055400
 C                  4.27136800   -3.15774100   -0.53624300
 O                  3.46965400   -3.04552100   -1.39612800

Au Cu 0
LANL2DZ
****
O C 0
def2tzvp
****

Au Cu 0
LANL2DZ



