Au Cu O Ti
1.0
 15.213700294500   0.000000000000   0.000000000000
  0.000000000000  15.213700294500   0.000000000000
  0.000000000000   0.000000000000  29.000000000000
Au Cu O Ti
  3  10 137  64
Selective dynamics
Direct
  0.549698355517   0.272474145165   0.431359044138  T T T
  0.432387659643   0.401176238157   0.424627264979  T T T
  0.448991785107   0.585429307736   0.442583118336  T T T
  0.436035325280   0.386788721041   0.340636502807  T T T
  0.378025889606   0.242887669362   0.369803571869  T T T
  0.570570172649   0.186046725815   0.356742723347  T T T
  0.268208510084   0.372032442900   0.340571589344  T T T
  0.615270779137   0.405688894448   0.325648552734  T T T
  0.389847863035   0.659763744562   0.363281687507  T T T
  0.348072673595   0.508056472365   0.373949660967  T T T
  0.601240423021   0.455783774646   0.439054335542  T T T
  0.693460483255   0.337756805415   0.396067622146  T T T
  0.516194263097   0.512389628026   0.369172294883  T T T
  0.000000000000   0.000000000000   0.016705001000  F F F
  0.000000000000   0.250000000000   0.016705001000  F F F
  0.000000000000   0.500000000000   0.016705001000  F F F
  0.000000000000   0.749998987000   0.016705001000  F F F
  0.250000000000   0.000000000000   0.016705001000  F F F
  0.250000000000   0.250000000000   0.016705001000  F F F
  0.250000000000   0.500000000000   0.016705001000  F F F
  0.250000000000   0.749998987000   0.016705001000  F F F
  0.500000000000   0.000000000000   0.016705001000  F F F
  0.500000000000   0.250000000000   0.016705001000  F F F
  0.500000000000   0.500000000000   0.016705001000  F F F
  0.500000000000   0.749998987000   0.016705001000  F F F
  0.749998987000   0.000000000000   0.016705001000  F F F
  0.749998987000   0.250000000000   0.016705001000  F F F
  0.749998987000   0.500000000000   0.016705001000  F F F
  0.749998987000   0.749998987000   0.016705001000  F F F
  0.125830637654   0.124598906632   0.180849585295  T T T
  0.128841019260   0.374105452451   0.182489914109  T T T
  0.125947006528   0.624711779888   0.180323389526  T T T
  0.123696646265   0.874354005485   0.179109644253  T T T
  0.374145118546   0.124231675774   0.180018434723  T T T
  0.370848074823   0.373919211101   0.181726878245  T T T
  0.377234657471   0.625169747302   0.180818356409  T T T
  0.378942420118   0.875274838104   0.178789948361  T T T
  0.627441410158   0.124159656375   0.179944638642  T T T
  0.627969938358   0.374312599961   0.181616370938  T T T
  0.623559684643   0.625461223951   0.180095112305  T T T
  0.623650035333   0.874767589892   0.179105659344  T T T
  0.876116035174   0.123690618432   0.181006381223  T T T
  0.870972967751   0.373459722394   0.182479224338  T T T
  0.873862800096   0.623782607479   0.180933490635  T T T
  0.879088270502   0.873168245002   0.178912428108  T T T
  0.000000000000   0.125000000000   0.098587997000  F F F
  0.000000000000   0.375000000000   0.098587997000  F F F
  0.000000000000   0.625000000000   0.098587997000  F F F
  0.000000000000   0.874998987000   0.098587997000  F F F
  0.250000000000   0.125000000000   0.098587997000  F F F
  0.250000000000   0.375000000000   0.098587997000  F F F
  0.250000000000   0.625000000000   0.098587997000  F F F
  0.250000000000   0.874998987000   0.098587997000  F F F
  0.500000000000   0.125000000000   0.098587997000  F F F
  0.500000000000   0.375000000000   0.098587997000  F F F
  0.500000000000   0.625000000000   0.098587997000  F F F
  0.500000000000   0.874998987000   0.098587997000  F F F
  0.749998987000   0.125000000000   0.098587997000  F F F
  0.749998987000   0.375000000000   0.098587997000  F F F
  0.749998987000   0.625000000000   0.098587997000  F F F
  0.749998987000   0.874998987000   0.098587997000  F F F
  0.127142170326   0.996693534626   0.260540228184  T T T
  0.128893153252   0.246819225444   0.267034530798  T T T
  0.125961086921   0.512489382748   0.264099014788  T T T
  0.126706420839   0.758619383773   0.260728124937  T T T
  0.377431556434   0.997772850501   0.260109779117  T T T
  0.374983763976   0.244305492306   0.263828846689  T T T
  0.373078949493   0.507106869331   0.264387728018  T T T
  0.376759198627   0.765882935432   0.260125049940  T T T
  0.627189028647   0.996861780168   0.260074657276  T T T
  0.626084245307   0.246105486000   0.262170501332  T T T
  0.621033366041   0.520791370814   0.261149516713  T T T
  0.624542982210   0.761662736175   0.261633040144  T T T
  0.878086691236   0.988399397464   0.259786030045  T T T
  0.870994679438   0.250418577134   0.267531712289  T T T
  0.873023075536   0.508724936099   0.265310732465  T T T
  0.876018781366   0.758921042900   0.261269126628  T T T
  0.125253808783   0.000599661380   0.124850163234  T T T
  0.124818593213   0.250498845292   0.128051488372  T T T
  0.124397614792   0.498673920518   0.127166861374  T T T
  0.125007010455   0.749050878569   0.124905057702  T T T
  0.375325982281   0.000319879469   0.124275654396  T T T
  0.374848442132   0.250411495478   0.126548010164  T T T
  0.374340604175   0.499273047365   0.126960821653  T T T
  0.375024717736   0.749230151728   0.124851513889  T T T
  0.625334672234   0.000096350378   0.124347004433  T T T
  0.625424553960   0.250422541546   0.126158361273  T T T
  0.625054890995   0.499575782578   0.126356324899  T T T
  0.625836927069   0.749405410049   0.125205377359  T T T
  0.875872167052  -0.000161821577   0.124756100386  T T T
  0.875045563153   0.249980078085   0.128276006475  T T T
  0.875013238338   0.498234804308   0.127751352572  T T T
  0.874848112955   0.748088138486   0.125263717341  T T T
  0.999263351639   0.123612108170   0.291929169943  T T T
  0.001486745489   0.379450500802   0.291381198591  T T T
  0.000722296882   0.633939759964   0.292523443003  T T T
  0.003683683540   0.878242584450   0.294125208241  T T T
  0.251566982791   0.100806719202   0.296381021374  T T T
  0.246677552071   0.486626353427   0.335144722535  T T T
  0.257465464241   0.653458963408   0.297333270430  T T T
  0.251666664961   0.877329252566   0.298220702887  T T T
  0.505305562990   0.120898335183   0.294344078921  T T T
  0.511547611829   0.371023595318   0.289470684920  T T T
  0.501921546546   0.886711146901   0.295111928412  T T T
  0.762436561744   0.100099226898   0.288252795676  T T T
  0.725942830368   0.461582781448   0.327726924874  T T T
  0.749099218684   0.649151265074   0.299824431175  T T T
  0.750784405555   0.874132742675   0.298784391446  T T T
  0.125000000000   0.125000000000   0.043614000000  F F F
  0.125000000000   0.375000000000   0.043614000000  F F F
  0.125000000000   0.625000000000   0.043614000000  F F F
  0.125000000000   0.874998987000   0.043614000000  F F F
  0.375000000000   0.125000000000   0.043614000000  F F F
  0.375000000000   0.375000000000   0.043614000000  F F F
  0.375000000000   0.625000000000   0.043614000000  F F F
  0.375000000000   0.874998987000   0.043614000000  F F F
  0.625000000000   0.125000000000   0.043614000000  F F F
  0.625000000000   0.375000000000   0.043614000000  F F F
  0.625000000000   0.625000000000   0.043614000000  F F F
  0.625000000000   0.874998987000   0.043614000000  F F F
  0.874998987000   0.125000000000   0.043614000000  F F F
  0.874998987000   0.375000000000   0.043614000000  F F F
  0.874998987000   0.625000000000   0.043614000000  F F F
  0.874998987000   0.874998987000   0.043614000000  F F F
  0.002290764021   0.996706793844   0.206806903779  T T T
  0.000054165381   0.245703299739   0.211691875819  T T T
 -0.000652331350   0.494056931189   0.209774376254  T T T
  0.000847735890   0.744534046626   0.207255091900  T T T
  0.251694569781   0.992237648838   0.205664115920  T T T
  0.250236137248   0.240887399799   0.211037350972  T T T
  0.249707693421   0.505926194299   0.209975331554  T T T
  0.251510156927   0.753425481288   0.205938517469  T T T
  0.501952443753   0.001929806291   0.205974199887  T T T
  0.500019399267   0.245743864548   0.208214622581  T T T
  0.497910896887   0.494553078705   0.208801245402  T T T
  0.501231885972   0.753116601421   0.207162874926  T T T
  0.752197003995   0.989789424121   0.204740108399  T T T
  0.750427907583   0.239642045687   0.211310108794  T T T
  0.748273494908   0.502029538392   0.211002627007  T T T
  0.750182759010   0.751392964425   0.207613628021  T T T
  0.485336318220   0.692614863825   0.328944079147  T T T
  0.499249716072   0.634300709488   0.288513783634  T T T
  0.647873638783   0.350421568095   0.454884100364  T T T
  0.573063383451   0.566246503493   0.421499040428  T T T
  0.689075978122   0.197495778974   0.342394459639  T T T
  0.724294495462   0.290981267634   0.338912905769  T T T
  0.471584997402   0.189655283242   0.394828315049  T T T
  0.270097982074   0.255155006963   0.341189699749  T T T
  0.296214097517   0.624235368602   0.400030797856  T T T
  0.321872374915   0.618266888818   0.447383177726  T T T
  0.001872839791   0.991459925209   0.274312338995  T T T
  0.999157067448   0.240817517754   0.276860905686  T T T
 -0.000730164738   0.495116000051   0.275734754573  T T T
  0.000927103462   0.746898838451   0.274581750331  T T T
  0.251705641056   0.987705993060   0.271985939893  T T T
  0.250753724482   0.215089187300   0.281328852803  T T T
  0.248252909095   0.538650393339   0.278921459081  T T T
  0.251027425526   0.765359304530   0.272113879505  T T T
  0.502543426305   0.002232032471   0.272096320934  T T T
  0.500375015849   0.239068064242   0.273914909367  T T T
  0.498504442866   0.503751426340   0.276347216134  T T T
  0.500937332842   0.771634326744   0.275374755347  T T T
  0.752995537198   0.983840219483   0.271021851482  T T T
  0.747662296341   0.216995909918   0.282059046821  T T T
  0.748055650032   0.532092189030   0.281382589010  T T T
  0.750786792034   0.759923414505   0.274686534967  T T T
  0.124859510689   0.126210584173   0.112113461600  T T T
  0.124988077781   0.374544974320   0.112552703416  T T T
  0.124869078627   0.623572390169   0.111948762479  T T T
  0.124778539529   0.874491667958   0.111392455816  T T T
  0.374960573502   0.125642202196   0.111528230222  T T T
  0.374908882205   0.374961910137   0.112068999488  T T T
  0.375073450679   0.624125137585   0.111929718001  T T T
  0.375053731045   0.874527593740   0.111151635975  T T T
  0.625114370959   0.125693363849   0.111584950342  T T T
  0.625258279512   0.375302354396   0.112122144647  T T T
  0.625123883769   0.624442213090   0.111770687815  T T T
  0.625003547816   0.874139137686   0.111340722112  T T T
  0.875061986268   0.125580133212   0.112300952999  T T T
  0.874943477522   0.374277670729   0.112800799229  T T T
  0.874981369523   0.622811087724   0.112297766709  T T T
  0.875050908551   0.873335492202   0.111478608542  T T T
  0.000000000000   0.125000000000   0.030159000000  F F F
  0.000000000000   0.375000000000   0.030159000000  F F F
  0.000000000000   0.625000000000   0.030159000000  F F F
  0.000000000000   0.874998987000   0.030159000000  F F F
  0.250000000000   0.125000000000   0.030159000000  F F F
  0.250000000000   0.375000000000   0.030159000000  F F F
  0.250000000000   0.625000000000   0.030159000000  F F F
  0.250000000000   0.874998987000   0.030159000000  F F F
  0.500000000000   0.125000000000   0.030159000000  F F F
  0.500000000000   0.375000000000   0.030159000000  F F F
  0.500000000000   0.625000000000   0.030159000000  F F F
  0.500000000000   0.874998987000   0.030159000000  F F F
  0.749998987000   0.125000000000   0.030159000000  F F F
  0.749998987000   0.375000000000   0.030159000000  F F F
  0.749998987000   0.625000000000   0.030159000000  F F F
  0.749998987000   0.874998987000   0.030159000000  F F F
  0.125613849049  -0.000121086881   0.192667519172  T T T
  0.127875977988   0.250158962175   0.197269728319  T T T
  0.126414693750   0.500060220994   0.196109555758  T T T
  0.124861729071   0.749953916756   0.193046593170  T T T
  0.376760560504  -0.000510349786   0.192001553108  T T T
  0.372132463154   0.249500931173   0.194987751424  T T T
  0.372630430073   0.499388333409   0.195455649451  T T T
  0.378276014100   0.750081020157   0.192925605157  T T T
  0.627659421763   0.999394569102   0.191907680998  T T T
  0.628633794036   0.249725472369   0.194740877862  T T T
  0.625661636507   0.500569058869   0.195172786839  T T T
  0.624971968289   0.749953869077   0.193647434458  T T T
  0.878508050590   0.998690354934   0.192515232555  T T T
  0.871947113068   0.249629651768   0.197528085160  T T T
  0.870882022672   0.499224563868   0.197155382137  T T T
  0.875922462084   0.749226544070   0.193812674885  T T T
