Au C Cu O Ti                            
   1.00000000000000     
    15.2137002945000006    0.0000000000000000    0.0000000000000000
     0.0000000000000000   15.2137002945000006    0.0000000000000000
     0.0000000000000000    0.0000000000000000   29.0000000000000000
   Au   C    Cu   O    Ti
     3     1    10   130    64
Selective dynamics
Direct
  0.5110310840055196  0.1997958385052285  0.4476195174472452   T   T   T
  0.3718242588042832  0.3181654491151764  0.4702926518084219   T   T   T
  0.4910162187118935  0.5596712672139592  0.4508124913947311   T   T   T
  0.4489281372077246  0.6793333326110449  0.4650174546227318   T   T   T
  0.5046136020689623  0.3752075564699339  0.3387037840458939   T   T   T
  0.4242936188360867  0.2869438293856034  0.3909215986472871   T   T   T
  0.5177692917175817  0.1758130848358380  0.3598858734389320   T   T   T
  0.3462514822501892  0.3890972668898670  0.3418096080566196   T   T   T
  0.6645843013378810  0.3882348375618906  0.3408778963640998   T   T   T
  0.4610617207575842  0.5525701077301609  0.3571429882683907   T   T   T
  0.4125567602681949  0.4392280910046380  0.4094272731535872   T   T   T
  0.5195721070772652  0.3872531207543254  0.4613138687779607   T   T   T
  0.5903671260736544  0.3028715309983246  0.3967286514451681   T   T   T
  0.5701797210823837  0.4620614308670590  0.3942783233313075   T   T   T
  0.0000000000000000  0.0000000000000000  0.0167050009999983   F   F   F
  0.0000000000000000  0.2500000000000000  0.0167050009999983   F   F   F
  0.0000000000000000  0.5000000000000000  0.0167050009999983   F   F   F
  0.0000000000000000  0.7499989869999979  0.0167050009999983   F   F   F
  0.2500000000000000  0.0000000000000000  0.0167050009999983   F   F   F
  0.2500000000000000  0.2500000000000000  0.0167050009999983   F   F   F
  0.2500000000000000  0.5000000000000000  0.0167050009999983   F   F   F
  0.2500000000000000  0.7499989869999979  0.0167050009999983   F   F   F
  0.5000000000000000  0.0000000000000000  0.0167050009999983   F   F   F
  0.5000000000000000  0.2500000000000000  0.0167050009999983   F   F   F
  0.5000000000000000  0.5000000000000000  0.0167050009999983   F   F   F
  0.5000000000000000  0.7499989869999979  0.0167050009999983   F   F   F
  0.7499989869999979  0.0000000000000000  0.0167050009999983   F   F   F
  0.7499989869999979  0.2500000000000000  0.0167050009999983   F   F   F
  0.7499989869999979  0.5000000000000000  0.0167050009999983   F   F   F
  0.7499989869999979  0.7499989869999979  0.0167050009999983   F   F   F
  0.1221570531361522  0.1236482008222751  0.1805421896210621   T   T   T
  0.1321868867046305  0.3744654307668733  0.1813338013787177   T   T   T
  0.1244709842314877  0.6251700749179701  0.1802355883724677   T   T   T
  0.1246566914697669  0.8743480008689738  0.1798136752775663   T   T   T
  0.3769897632694664  0.1230853849494990  0.1799329639073567   T   T   T
  0.3703659888251150  0.3739865815376885  0.1815037056613208   T   T   T
  0.3762404593327719  0.6263700548592336  0.1798974350676406   T   T   T
  0.3771145713160841  0.8751168940461924  0.1797187971107119   T   T   T
  0.6265555914180636  0.1247712965250546  0.1802952168746827   T   T   T
  0.6271437103010415  0.3741903172698109  0.1805679207767105   T   T   T
  0.6249317032511632  0.6262514248356355  0.1806025280524103   T   T   T
  0.6251860321106497  0.8759622075232764  0.1804341779582423   T   T   T
  0.8772621753357551  0.1257020030165572  0.1807992636277861   T   T   T
  0.8741356611908987  0.3749494235473227  0.1808954070994430   T   T   T
  0.8764202830902225  0.6253755598415679  0.1807832122253339   T   T   T
  0.8747305310013855  0.8756805570254044  0.1805112370515923   T   T   T
  0.0000000000000000  0.1250000000000000  0.0985879970000028   F   F   F
  0.0000000000000000  0.3750000000000000  0.0985879970000028   F   F   F
  0.0000000000000000  0.6250000000000000  0.0985879970000028   F   F   F
  0.0000000000000000  0.8749989869999979  0.0985879970000028   F   F   F
  0.2500000000000000  0.1250000000000000  0.0985879970000028   F   F   F
  0.2500000000000000  0.3750000000000000  0.0985879970000028   F   F   F
  0.2500000000000000  0.6250000000000000  0.0985879970000028   F   F   F
  0.2500000000000000  0.8749989869999979  0.0985879970000028   F   F   F
  0.5000000000000000  0.1250000000000000  0.0985879970000028   F   F   F
  0.5000000000000000  0.3750000000000000  0.0985879970000028   F   F   F
  0.5000000000000000  0.6250000000000000  0.0985879970000028   F   F   F
  0.5000000000000000  0.8749989869999979  0.0985879970000028   F   F   F
  0.7499989869999979  0.1250000000000000  0.0985879970000028   F   F   F
  0.7499989869999979  0.3750000000000000  0.0985879970000028   F   F   F
  0.7499989869999979  0.6250000000000000  0.0985879970000028   F   F   F
  0.7499989869999979  0.8749989869999979  0.0985879970000028   F   F   F
  0.1262359919610396  0.9995363514117812  0.2618055008766852   T   T   T
  0.1326842347536151  0.2558147642495887  0.2650238232579316   T   T   T
  0.1255418347469294  0.5144397051115912  0.2622821661398834   T   T   T
  0.1249919012883128  0.7579653716804893  0.2620137140635875   T   T   T
  0.3757502407058815  0.0010322823942853  0.2621845422887601   T   T   T
  0.3704131029298446  0.2448253580279728  0.2640430096578250   T   T   T
  0.3779525675803074  0.5162328324892136  0.2612679832710990   T   T   T
  0.3757980742222649  0.7611947211995576  0.2621293866709917   T   T   T
  0.6249064051071729  0.0043144291443128  0.2631857797902148   T   T   T
  0.6230483714819364  0.2432703447853374  0.2624680458828739   T   T   T
  0.6264057093007118  0.4997570003381805  0.2609422466198794   T   T   T
  0.6247975847252184  0.7616484762917319  0.2636335890047806   T   T   T
  0.8763001132554052  0.0065003903126604  0.2628707870937168   T   T   T
  0.8765722069256926  0.2531381731790180  0.2634568160578050   T   T   T
  0.8750719347362719  0.5016170525492464  0.2638274334657304   T   T   T
  0.8742492496881717  0.7556060181038378  0.2629905122151239   T   T   T
  0.1253749834641898 -0.0001515927236688  0.1254198308923510   T   T   T
  0.1245354109807586  0.2501297992647326  0.1264759321333774   T   T   T
  0.1244859411083622  0.4995508852002613  0.1263215026978160   T   T   T
  0.1247253276168917  0.7495849295439708  0.1254879503112096   T   T   T
  0.3751187758317128 -0.0001439111009472  0.1252163131487537   T   T   T
  0.3747332377609969  0.2499387134393940  0.1259141922033930   T   T   T
  0.3739805748233771  0.4998910662332399  0.1255409221769468   T   T   T
  0.3747338389306945  0.7502856254997741  0.1254146477670965   T   T   T
  0.6250751807859407  0.0003936854117641  0.1261067761891645   T   T   T
  0.6248012820686329  0.2497514815727682  0.1258985947896994   T   T   T
  0.6266690534459658  0.5001491741048026  0.1251053895690712   T   T   T
  0.6246153874206721  0.7507307834849994  0.1263140078933546   T   T   T
  0.8749843919306338  0.0007648552104798  0.1261760377853803   T   T   T
  0.8752478166494916  0.2503631700755157  0.1265826075157203   T   T   T
  0.8757488192904926  0.5000440258875871  0.1263935358488360   T   T   T
  0.8743935303727997  0.7503390880308810  0.1261539038014041   T   T   T
  0.0045275327542004  0.1315245871786599  0.2923403389656785   T   T   T
  0.0044027207991334  0.3802319223761804  0.2923483972490167   T   T   T
 -0.0007885496209559  0.6314307292408453  0.2923546119379214   T   T   T
  0.9993190942642236  0.8812214515172337  0.2932574115107326   T   T   T
  0.2483524875716533  0.1091093584278773  0.2958237249413585   T   T   T
  0.2507430766205573  0.4402922130958702  0.3166216626841398   T   T   T
  0.2527250197473205  0.6464573924206755  0.2991736569242849   T   T   T
  0.2500050211268337  0.8767727323933435  0.2970120019160536   T   T   T
  0.4999896248298417  0.1203238433806213  0.3011902042895322   T   T   T
  0.4953571389217852  0.3703290472307249  0.2741957270339196   T   T   T
  0.5003780483724478  0.8822749755013312  0.2959896342182652   T   T   T
  0.7508866621469811  0.1263276056734380  0.2941682893637025   T   T   T
  0.7477670658943076  0.3688282777759987  0.2960550996373575   T   T   T
  0.7484263975074285  0.6301233318466124  0.2904829554398005   T   T   T
  0.7519590251810361  0.8813222300098894  0.2925427342190773   T   T   T
  0.1250000000000000  0.1250000000000000  0.0436139999999980   F   F   F
  0.1250000000000000  0.3750000000000000  0.0436139999999980   F   F   F
  0.1250000000000000  0.6250000000000000  0.0436139999999980   F   F   F
  0.1250000000000000  0.8749989869999979  0.0436139999999980   F   F   F
  0.3750000000000000  0.1250000000000000  0.0436139999999980   F   F   F
  0.3750000000000000  0.3750000000000000  0.0436139999999980   F   F   F
  0.3750000000000000  0.6250000000000000  0.0436139999999980   F   F   F
  0.3750000000000000  0.8749989869999979  0.0436139999999980   F   F   F
  0.6250000000000000  0.1250000000000000  0.0436139999999980   F   F   F
  0.6250000000000000  0.3750000000000000  0.0436139999999980   F   F   F
  0.6250000000000000  0.6250000000000000  0.0436139999999980   F   F   F
  0.6250000000000000  0.8749989869999979  0.0436139999999980   F   F   F
  0.8749989869999979  0.1250000000000000  0.0436139999999980   F   F   F
  0.8749989869999979  0.3750000000000000  0.0436139999999980   F   F   F
  0.8749989869999979  0.6250000000000000  0.0436139999999980   F   F   F
  0.8749989869999979  0.8749989869999979  0.0436139999999980   F   F   F
  0.0003591865118704  0.9949822426665138  0.2081323097005137   T   T   T
  0.0029096789205052  0.2489529935404426  0.2094352800962834   T   T   T
  0.0013308556861448  0.4938493035678310  0.2085528614655904   T   T   T
 -0.0004194822675552  0.7470996477344556  0.2080320931273231   T   T   T
  0.2510042907270792  0.9940126115671097  0.2071633493278267   T   T   T
  0.2501883759296962  0.2300409309371286  0.2070397833550857   T   T   T
  0.2508299525663673  0.5040847147680934  0.2087644330074179   T   T   T
  0.2511284756053990  0.7493733611429175  0.2080424930363282   T   T   T
  0.5010531594232673 -0.0002239327527975  0.2094591374935328   T   T   T
  0.4984053325224261  0.2426449646454685  0.2069496029974531   T   T   T
  0.5007394187325190  0.4979477722045924  0.2038302908738510   T   T   T
  0.5001835448656892  0.7515900328802854  0.2094227416121891   T   T   T
  0.7506703775188589  0.0016192971941304  0.2086587415051621   T   T   T
  0.7505649910373218  0.2489401367736140  0.2092006035543843   T   T   T
  0.7517087566320239  0.5056308849360527  0.2078747244132335   T   T   T
  0.7487887827366075  0.7535810819603105  0.2085429607458481   T   T   T
  0.4835322419147305  0.6702577301199688  0.3270714439234714   T   T   T
  0.5154263803496549  0.6287371137480101  0.2837698030893652   T   T   T
  0.4189260412488484  0.7472731333049928  0.4562329292246630   T   T   T
  0.0008886951795075  0.9941229498820847  0.2749486992709603   T   T   T
  0.0025720400046830  0.2467676635519770  0.2756211769117605   T   T   T
  0.0021932796197189  0.4956460621927754  0.2748724859860663   T   T   T
 -0.0002996971576073  0.7461327216306963  0.2747022720290316   T   T   T
  0.2503795612626259  0.9879503374903021  0.2731249008215485   T   T   T
  0.2501412461713596  0.2162270333571843  0.2719758310805279   T   T   T
  0.2509276867114176  0.5287700682162142  0.2776546740287266   T   T   T
  0.2500986428671621  0.7577187768470671  0.2743252306597164   T   T   T
  0.5007764690227582 -0.0008948355321887  0.2759463080580337   T   T   T
  0.4989067529337046  0.2417502320759546  0.2745862780302576   T   T   T
  0.5013949791746913  0.4948418729483233  0.2708066743233367   T   T   T
  0.4985565287233462  0.7623278326748333  0.2786858680685885   T   T   T
  0.7513199713042916  0.0046676852836935  0.2748981024520475   T   T   T
  0.7505947393490445  0.2472234050918405  0.2757342657258270   T   T   T
  0.7508073937620531  0.5151285781806298  0.2742048774670822   T   T   T
  0.7493678269596236  0.7618656687174628  0.2739405780680927   T   T   T
  0.1247294587067665  0.1241977865555512  0.1118427094603381   T   T   T
  0.1251670880809762  0.3759599919142305  0.1118445296323771   T   T   T
  0.1249045760323279  0.6245584493519956  0.1117764870186392   T   T   T
  0.1250085484599691  0.8741251894133713  0.1115567220861295   T   T   T
  0.3751222215838652  0.1239309300384694  0.1114749406617101   T   T   T
  0.3748504651740582  0.3758581992936976  0.1117902947608499   T   T   T
  0.3749747950555804  0.6256118814072837  0.1115924173457364   T   T   T
  0.3749583971691172  0.8745192147633425  0.1112905437619359   T   T   T
  0.6251095729240945  0.1248793418725114  0.1116521600827067   T   T   T
  0.6251234314233236  0.3747219553399505  0.1117078099484012   T   T   T
  0.6250821365469351  0.6263590121254569  0.1118611649847670   T   T   T
  0.6251182925017739  0.8751146027024123  0.1118142009595831   T   T   T
  0.8750382499700561  0.1257452981982186  0.1119386311816574   T   T   T
  0.8749254847646047  0.3751020412961710  0.1119440810367803   T   T   T
  0.8750856058733658  0.6251974255497614  0.1119965018595704   T   T   T
  0.8749277641693919  0.8753977357166505  0.1119637262486984   T   T   T
  0.0000000000000000  0.1250000000000000  0.0301589999999976   F   F   F
  0.0000000000000000  0.3750000000000000  0.0301589999999976   F   F   F
  0.0000000000000000  0.6250000000000000  0.0301589999999976   F   F   F
  0.0000000000000000  0.8749989869999979  0.0301589999999976   F   F   F
  0.2500000000000000  0.1250000000000000  0.0301589999999976   F   F   F
  0.2500000000000000  0.3750000000000000  0.0301589999999976   F   F   F
  0.2500000000000000  0.6250000000000000  0.0301589999999976   F   F   F
  0.2500000000000000  0.8749989869999979  0.0301589999999976   F   F   F
  0.5000000000000000  0.1250000000000000  0.0301589999999976   F   F   F
  0.5000000000000000  0.3750000000000000  0.0301589999999976   F   F   F
  0.5000000000000000  0.6250000000000000  0.0301589999999976   F   F   F
  0.5000000000000000  0.8749989869999979  0.0301589999999976   F   F   F
  0.7499989869999979  0.1250000000000000  0.0301589999999976   F   F   F
  0.7499989869999979  0.3750000000000000  0.0301589999999976   F   F   F
  0.7499989869999979  0.6250000000000000  0.0301589999999976   F   F   F
  0.7499989869999979  0.8749989869999979  0.0301589999999976   F   F   F
  0.1247220397422940  0.9993579787519891  0.1932050004946163   T   T   T
  0.1258740055062855  0.2507387691508073  0.1934658266553658   T   T   T
  0.1282075281069721  0.5008517313997752  0.1950016829295540   T   T   T
  0.1250154028747391  0.7501115412461666  0.1938794178191094   T   T   T
  0.3768077482473510 -0.0004682651240981  0.1932831264182596   T   T   T
  0.3755782268827683  0.2496849252696939  0.1927280820105275   T   T   T
  0.3734042437032272  0.5013089265526173  0.1937656754604175   T   T   T
  0.3771771806757697  0.7506358686457036  0.1938363759630365   T   T   T
  0.6257162345049634  0.0003070311247550  0.1942538200644262   T   T   T
  0.6248462927174050  0.2494551258599657  0.1940960410849408   T   T   T
  0.6264463517012746  0.4999947283430334  0.1925382735100312   T   T   T
  0.6226060946671714  0.7510195330347120  0.1947241860571143   T   T   T
  0.8759590495717062  0.0007753841325476  0.1941405241290514   T   T   T
  0.8760059588335251  0.2508464490739830  0.1950478797435281   T   T   T
  0.8764978024340259  0.5001786090182304  0.1943789168616108   T   T   T
  0.8749366214016304  0.7506290515030806  0.1943376639950516   T   T   T
