Au C Cu O Ti
1.0
 15.213700294500   0.000000000000   0.000000000000
  0.000000000000  15.213700294500   0.000000000000
  0.000000000000   0.000000000000  29.000000000000
Au C Cu O Ti
  3   1  10 130  64
Selective dynamics
Direct
  0.511031084006   0.199795838505   0.447619517447  T T T
  0.371824258804   0.318165449115   0.470292651808  T T T
  0.491016218712   0.559671267214   0.450812491395  T T T
  0.448928137208   0.679333332611   0.465017454623  T T T
  0.504613602069   0.375207556470   0.338703784046  T T T
  0.424293618836   0.286943829386   0.390921598647  T T T
  0.517769291718   0.175813084836   0.359885873439  T T T
  0.346251482250   0.389097266890   0.341809608057  T T T
  0.664584301338   0.388234837562   0.340877896364  T T T
  0.461061720758   0.552570107730   0.357142988268  T T T
  0.412556760268   0.439228091005   0.409427273154  T T T
  0.519572107077   0.387253120754   0.461313868778  T T T
  0.590367126074   0.302871530998   0.396728651445  T T T
  0.570179721082   0.462061430867   0.394278323331  T T T
  0.000000000000   0.000000000000   0.016705001000  F F F
  0.000000000000   0.250000000000   0.016705001000  F F F
  0.000000000000   0.500000000000   0.016705001000  F F F
  0.000000000000   0.749998987000   0.016705001000  F F F
  0.250000000000   0.000000000000   0.016705001000  F F F
  0.250000000000   0.250000000000   0.016705001000  F F F
  0.250000000000   0.500000000000   0.016705001000  F F F
  0.250000000000   0.749998987000   0.016705001000  F F F
  0.500000000000   0.000000000000   0.016705001000  F F F
  0.500000000000   0.250000000000   0.016705001000  F F F
  0.500000000000   0.500000000000   0.016705001000  F F F
  0.500000000000   0.749998987000   0.016705001000  F F F
  0.749998987000   0.000000000000   0.016705001000  F F F
  0.749998987000   0.250000000000   0.016705001000  F F F
  0.749998987000   0.500000000000   0.016705001000  F F F
  0.749998987000   0.749998987000   0.016705001000  F F F
  0.122157053136   0.123648200822   0.180542189621  T T T
  0.132186886705   0.374465430767   0.181333801379  T T T
  0.124470984231   0.625170074918   0.180235588372  T T T
  0.124656691470   0.874348000869   0.179813675278  T T T
  0.376989763269   0.123085384949   0.179932963907  T T T
  0.370365988825   0.373986581538   0.181503705661  T T T
  0.376240459333   0.626370054859   0.179897435068  T T T
  0.377114571316   0.875116894046   0.179718797111  T T T
  0.626555591418   0.124771296525   0.180295216875  T T T
  0.627143710301   0.374190317270   0.180567920777  T T T
  0.624931703251   0.626251424836   0.180602528052  T T T
  0.625186032111   0.875962207523   0.180434177958  T T T
  0.877262175336   0.125702003017   0.180799263628  T T T
  0.874135661191   0.374949423547   0.180895407099  T T T
  0.876420283090   0.625375559842   0.180783212225  T T T
  0.874730531001   0.875680557025   0.180511237052  T T T
  0.000000000000   0.125000000000   0.098587997000  F F F
  0.000000000000   0.375000000000   0.098587997000  F F F
  0.000000000000   0.625000000000   0.098587997000  F F F
  0.000000000000   0.874998987000   0.098587997000  F F F
  0.250000000000   0.125000000000   0.098587997000  F F F
  0.250000000000   0.375000000000   0.098587997000  F F F
  0.250000000000   0.625000000000   0.098587997000  F F F
  0.250000000000   0.874998987000   0.098587997000  F F F
  0.500000000000   0.125000000000   0.098587997000  F F F
  0.500000000000   0.375000000000   0.098587997000  F F F
  0.500000000000   0.625000000000   0.098587997000  F F F
  0.500000000000   0.874998987000   0.098587997000  F F F
  0.749998987000   0.125000000000   0.098587997000  F F F
  0.749998987000   0.375000000000   0.098587997000  F F F
  0.749998987000   0.625000000000   0.098587997000  F F F
  0.749998987000   0.874998987000   0.098587997000  F F F
  0.126235991961   0.999536351412   0.261805500877  T T T
  0.132684234754   0.255814764250   0.265023823258  T T T
  0.125541834747   0.514439705112   0.262282166140  T T T
  0.124991901288   0.757965371680   0.262013714064  T T T
  0.375750240706   0.001032282394   0.262184542289  T T T
  0.370413102930   0.244825358028   0.264043009658  T T T
  0.377952567580   0.516232832489   0.261267983271  T T T
  0.375798074222   0.761194721200   0.262129386671  T T T
  0.624906405107   0.004314429144   0.263185779790  T T T
  0.623048371482   0.243270344785   0.262468045883  T T T
  0.626405709301   0.499757000338   0.260942246620  T T T
  0.624797584725   0.761648476292   0.263633589005  T T T
  0.876300113255   0.006500390313   0.262870787094  T T T
  0.876572206926   0.253138173179   0.263456816058  T T T
  0.875071934736   0.501617052549   0.263827433466  T T T
  0.874249249688   0.755606018104   0.262990512215  T T T
  0.125374983464  -0.000151592724   0.125419830892  T T T
  0.124535410981   0.250129799265   0.126475932133  T T T
  0.124485941108   0.499550885200   0.126321502698  T T T
  0.124725327617   0.749584929544   0.125487950311  T T T
  0.375118775832  -0.000143911101   0.125216313149  T T T
  0.374733237761   0.249938713439   0.125914192203  T T T
  0.373980574823   0.499891066233   0.125540922177  T T T
  0.374733838931   0.750285625500   0.125414647767  T T T
  0.625075180786   0.000393685412   0.126106776189  T T T
  0.624801282069   0.249751481573   0.125898594790  T T T
  0.626669053446   0.500149174105   0.125105389569  T T T
  0.624615387421   0.750730783485   0.126314007893  T T T
  0.874984391931   0.000764855210   0.126176037785  T T T
  0.875247816649   0.250363170076   0.126582607516  T T T
  0.875748819290   0.500044025888   0.126393535849  T T T
  0.874393530373   0.750339088031   0.126153903801  T T T
  0.004527532754   0.131524587179   0.292340338966  T T T
  0.004402720799   0.380231922376   0.292348397249  T T T
 -0.000788549621   0.631430729241   0.292354611938  T T T
  0.999319094264   0.881221451517   0.293257411511  T T T
  0.248352487572   0.109109358428   0.295823724941  T T T
  0.250743076621   0.440292213096   0.316621662684  T T T
  0.252725019747   0.646457392421   0.299173656924  T T T
  0.250005021127   0.876772732393   0.297012001916  T T T
  0.499989624830   0.120323843381   0.301190204290  T T T
  0.495357138922   0.370329047231   0.274195727034  T T T
  0.500378048372   0.882274975501   0.295989634218  T T T
  0.750886662147   0.126327605673   0.294168289364  T T T
  0.747767065894   0.368828277776   0.296055099637  T T T
  0.748426397507   0.630123331847   0.290482955440  T T T
  0.751959025181   0.881322230010   0.292542734219  T T T
  0.125000000000   0.125000000000   0.043614000000  F F F
  0.125000000000   0.375000000000   0.043614000000  F F F
  0.125000000000   0.625000000000   0.043614000000  F F F
  0.125000000000   0.874998987000   0.043614000000  F F F
  0.375000000000   0.125000000000   0.043614000000  F F F
  0.375000000000   0.375000000000   0.043614000000  F F F
  0.375000000000   0.625000000000   0.043614000000  F F F
  0.375000000000   0.874998987000   0.043614000000  F F F
  0.625000000000   0.125000000000   0.043614000000  F F F
  0.625000000000   0.375000000000   0.043614000000  F F F
  0.625000000000   0.625000000000   0.043614000000  F F F
  0.625000000000   0.874998987000   0.043614000000  F F F
  0.874998987000   0.125000000000   0.043614000000  F F F
  0.874998987000   0.375000000000   0.043614000000  F F F
  0.874998987000   0.625000000000   0.043614000000  F F F
  0.874998987000   0.874998987000   0.043614000000  F F F
  0.000359186512   0.994982242667   0.208132309701  T T T
  0.002909678921   0.248952993540   0.209435280096  T T T
  0.001330855686   0.493849303568   0.208552861466  T T T
 -0.000419482268   0.747099647734   0.208032093127  T T T
  0.251004290727   0.994012611567   0.207163349328  T T T
  0.250188375930   0.230040930937   0.207039783355  T T T
  0.250829952566   0.504084714768   0.208764433007  T T T
  0.251128475605   0.749373361143   0.208042493036  T T T
  0.501053159423  -0.000223932753   0.209459137494  T T T
  0.498405332522   0.242644964645   0.206949602997  T T T
  0.500739418733   0.497947772205   0.203830290874  T T T
  0.500183544866   0.751590032880   0.209422741612  T T T
  0.750670377519   0.001619297194   0.208658741505  T T T
  0.750564991037   0.248940136774   0.209200603554  T T T
  0.751708756632   0.505630884936   0.207874724413  T T T
  0.748788782737   0.753581081960   0.208542960746  T T T
  0.483532241915   0.670257730120   0.327071443923  T T T
  0.515426380350   0.628737113748   0.283769803089  T T T
  0.418926041249   0.747273133305   0.456232929225  T T T
  0.000888695180   0.994122949882   0.274948699271  T T T
  0.002572040005   0.246767663552   0.275621176912  T T T
  0.002193279620   0.495646062193   0.274872485986  T T T
 -0.000299697158   0.746132721631   0.274702272029  T T T
  0.250379561263   0.987950337490   0.273124900822  T T T
  0.250141246171   0.216227033357   0.271975831081  T T T
  0.250927686711   0.528770068216   0.277654674029  T T T
  0.250098642867   0.757718776847   0.274325230660  T T T
  0.500776469023  -0.000894835532   0.275946308058  T T T
  0.498906752934   0.241750232076   0.274586278030  T T T
  0.501394979175   0.494841872948   0.270806674323  T T T
  0.498556528723   0.762327832675   0.278685868069  T T T
  0.751319971304   0.004667685284   0.274898102452  T T T
  0.750594739349   0.247223405092   0.275734265726  T T T
  0.750807393762   0.515128578181   0.274204877467  T T T
  0.749367826960   0.761865668717   0.273940578068  T T T
  0.124729458707   0.124197786556   0.111842709460  T T T
  0.125167088081   0.375959991914   0.111844529632  T T T
  0.124904576032   0.624558449352   0.111776487019  T T T
  0.125008548460   0.874125189413   0.111556722086  T T T
  0.375122221584   0.123930930038   0.111474940662  T T T
  0.374850465174   0.375858199294   0.111790294761  T T T
  0.374974795056   0.625611881407   0.111592417346  T T T
  0.374958397169   0.874519214763   0.111290543762  T T T
  0.625109572924   0.124879341873   0.111652160083  T T T
  0.625123431423   0.374721955340   0.111707809948  T T T
  0.625082136547   0.626359012125   0.111861164985  T T T
  0.625118292502   0.875114602702   0.111814200960  T T T
  0.875038249970   0.125745298198   0.111938631182  T T T
  0.874925484765   0.375102041296   0.111944081037  T T T
  0.875085605873   0.625197425550   0.111996501860  T T T
  0.874927764169   0.875397735717   0.111963726249  T T T
  0.000000000000   0.125000000000   0.030159000000  F F F
  0.000000000000   0.375000000000   0.030159000000  F F F
  0.000000000000   0.625000000000   0.030159000000  F F F
  0.000000000000   0.874998987000   0.030159000000  F F F
  0.250000000000   0.125000000000   0.030159000000  F F F
  0.250000000000   0.375000000000   0.030159000000  F F F
  0.250000000000   0.625000000000   0.030159000000  F F F
  0.250000000000   0.874998987000   0.030159000000  F F F
  0.500000000000   0.125000000000   0.030159000000  F F F
  0.500000000000   0.375000000000   0.030159000000  F F F
  0.500000000000   0.625000000000   0.030159000000  F F F
  0.500000000000   0.874998987000   0.030159000000  F F F
  0.749998987000   0.125000000000   0.030159000000  F F F
  0.749998987000   0.375000000000   0.030159000000  F F F
  0.749998987000   0.625000000000   0.030159000000  F F F
  0.749998987000   0.874998987000   0.030159000000  F F F
  0.124722039742   0.999357978752   0.193205000495  T T T
  0.125874005506   0.250738769151   0.193465826655  T T T
  0.128207528107   0.500851731400   0.195001682930  T T T
  0.125015402875   0.750111541246   0.193879417819  T T T
  0.376807748247  -0.000468265124   0.193283126418  T T T
  0.375578226883   0.249684925270   0.192728082011  T T T
  0.373404243703   0.501308926553   0.193765675460  T T T
  0.377177180676   0.750635868646   0.193836375963  T T T
  0.625716234505   0.000307031125   0.194253820064  T T T
  0.624846292717   0.249455125860   0.194096041085  T T T
  0.626446351701   0.499994728343   0.192538273510  T T T
  0.622606094667   0.751019533035   0.194724186057  T T T
  0.875959049572   0.000775384133   0.194140524129  T T T
  0.876005958834   0.250846449074   0.195047879744  T T T
  0.876497802434   0.500178609018   0.194378916862  T T T
  0.874936621402   0.750629051503   0.194337663995  T T T
