%chk=3d-Cu.chk
%nprocshared=16
%mem=6GB
# opt freq=noraman upbepbe/gen empiricaldispersion=gd3bj pseudo=read
scf=maxcycles=1000

3d-Cu

0 4
 Cu                 2.03430300   -0.91706800    0.03395100
 Cu                 0.52169500   -0.99210300    2.15347700
 Cu                 1.42650000    1.23673600    1.43360900
 Cu                -1.01405100    1.08062500    2.08417500
 Cu                 0.01150400   -2.52869600    0.07154600
 Cu                 1.41762200    1.10848400   -1.47557700
 Cu                 0.55407300   -1.18977000   -2.05644900
 Cu                -1.95771800   -1.28542700    1.36910000
 Cu                -1.90542900   -1.44579800   -1.29796300
 Cu                -0.26775400   -0.09725400    0.02099500
 Cu                -0.50310700    2.44032800   -0.08100900
 Cu                -1.01668600    0.83624900   -2.13236000
 Cu                -2.48855900    0.88647200   -0.01570000
 O                  1.28910900    3.08063000   -0.60448300
 O                  2.33004400    2.20658100   -0.02238900
 C                  3.89261200   -1.16428800    0.11224700
 O                  5.01645700   -1.27031100    0.15193000

Cu 0
LANL2DZ
****
O C 0
def2tzvp
****

Cu 0
LANL2DZ



