Au Cu                                   
   1.00000000000000     
    21.0000000000000000    0.0000000000000000    0.0000000000000000
     0.0000000000000000   21.0000000000000000    0.0000000000000000
     0.0000000000000000    0.0000000000000000   21.0000000000000000
   Au   Cu
     3    10
Selective dynamics
Direct
  0.4122025102228544  0.5903737969282983  0.5188934251812893   T   T   T
  0.5000000000000000  0.5334019234290716  0.3765255073787762   T   T   T
  0.5877974897771459  0.5903737969282983  0.5188934251812893   T   T   T
  0.4409808070192776  0.3944756182369177  0.5050392980239139   T   T   T
  0.4051539362716517  0.4891406202674849  0.4452929833524154   T   T   T
  0.4057843431344630  0.4831534947896576  0.5648871804341250   T   T   T
  0.5000000000000000  0.4226034129418079  0.4134732986304593   T   T   T
  0.5000000000000000  0.4324049903885110  0.6002432786625900   T   T   T
  0.5590191929807223  0.3944756182369177  0.5050392980239139   T   T   T
  0.5948460637283477  0.4891406202674849  0.4452929833524154   T   T   T
  0.5000000000000000  0.5000000000000000  0.5000000000000000   F   F   F
  0.5000000000000000  0.5498611820956253  0.5983127522995066   T   T   T
  0.5942156568655372  0.4831534947896576  0.5648871804341250   T   T   T
