Au Cu
1.0
 21.000000000000   0.000000000000   0.000000000000
  0.000000000000  21.000000000000   0.000000000000
  0.000000000000   0.000000000000  21.000000000000
Au Cu
  3  10
Selective dynamics
Direct
  0.412202510223   0.590373796928   0.518893425181  T T T
  0.500000000000   0.533401923429   0.376525507379  T T T
  0.587797489777   0.590373796928   0.518893425181  T T T
  0.440980807019   0.394475618237   0.505039298024  T T T
  0.405153936272   0.489140620267   0.445292983352  T T T
  0.405784343134   0.483153494790   0.564887180434  T T T
  0.500000000000   0.422603412942   0.413473298630  T T T
  0.500000000000   0.432404990389   0.600243278663  T T T
  0.559019192981   0.394475618237   0.505039298024  T T T
  0.594846063728   0.489140620267   0.445292983352  T T T
  0.500000000000   0.500000000000   0.500000000000  F F F
  0.500000000000   0.549861182096   0.598312752300  T T T
  0.594215656866   0.483153494790   0.564887180434  T T T
