%chk=3d-AuCu.chk
%nprocshared=16
%mem=6GB
# opt freq=noraman upbepbe/gen empiricaldispersion=gd3bj pseudo=read
scf=maxcycles=1000

3d-AuCu

0 2
 Au                -0.28124400    2.57220100   -0.00106500
 Au                -1.99490500   -0.08619300    1.52546600
 Au                -1.99691900   -0.08760000   -1.52380600
 Cu                 2.27505500   -0.66460800    1.41051700
 Cu                 0.50209800    1.00510200    2.06674100
 Cu                 2.02423800    1.48212900   -0.00185700
 Cu                 0.05340500   -1.63752000    2.02022900
 Cu                 2.27382700   -0.66770500   -1.41208200
 Cu                 1.18570200   -2.69997600    0.00047500
 Cu                -1.26531800   -2.29590700    0.00129900
 Cu                 0.14198600   -0.18907100   -0.00012600
 Cu                 0.50035100    1.00278300   -2.06779400
 Cu                 0.05076000   -1.63989200   -2.01896700
 O                  3.19457200   -2.26274700    0.71897900
 O                  3.20048000   -2.25917700   -0.71728100
 O                  4.90288300    2.20451800   -0.00096900
 C                  3.77797600    1.98338200   -0.00124800

Au Cu 0
LANL2DZ
****
O C 0
def2tzvp
****

Au Cu 0
LANL2DZ



