C Cu O Ti
1.0
 15.213700294500   0.000000000000   0.000000000000
  0.000000000000  15.213700294500   0.000000000000
  0.000000000000   0.000000000000  29.000000000000
C Cu O Ti
  1  13 130  64
Selective dynamics
Direct
  0.331477346617   0.661508887756   0.503595437219  T T T
  0.358963911956   0.584340775043   0.319264052727  T T T
  0.333466092782   0.721691911937   0.365969494035  T T T
  0.490763313454   0.675380340559   0.327109199669  T T T
  0.502550809863   0.534186006309   0.349419728414  T T T
  0.493488509541   0.764032208411   0.390662859851  T T T
  0.585355146327   0.626770123092   0.397872865763  T T T
  0.622445446341   0.748334942125   0.346205462888  T T T
  0.377391945642   0.469893455876   0.380339343109  T T T
  0.421625022846   0.616575800150   0.408444699812  T T T
  0.512654155154   0.380539904725   0.362954907319  T T T
  0.512633419582   0.484114875727   0.424564516552  T T T
  0.639475178590   0.477031952227   0.374837017063  T T T
  0.644822074964   0.595083033132   0.318583740740  T T T
  0.000000000000   0.000000000000   0.016705001000  F F F
  0.000000000000   0.250000000000   0.016705001000  F F F
  0.000000000000   0.500000000000   0.016705001000  F F F
  0.000000000000   0.749998987000   0.016705001000  F F F
  0.250000000000   0.000000000000   0.016705001000  F F F
  0.250000000000   0.250000000000   0.016705001000  F F F
  0.250000000000   0.500000000000   0.016705001000  F F F
  0.250000000000   0.749998987000   0.016705001000  F F F
  0.500000000000   0.000000000000   0.016705001000  F F F
  0.500000000000   0.250000000000   0.016705001000  F F F
  0.500000000000   0.500000000000   0.016705001000  F F F
  0.500000000000   0.749998987000   0.016705001000  F F F
  0.749998987000   0.000000000000   0.016705001000  F F F
  0.749998987000   0.250000000000   0.016705001000  F F F
  0.749998987000   0.500000000000   0.016705001000  F F F
  0.749998987000   0.749998987000   0.016705001000  F F F
  0.125197526531   0.124710392412   0.179891948585  T T T
  0.123972261010   0.374689895483   0.180995401161  T T T
  0.129915443739   0.624442201892   0.182107353487  T T T
  0.126153868016   0.874438516317   0.180738524462  T T T
  0.373943701042   0.124844153857   0.179050184632  T T T
  0.378020963631   0.374127571961   0.180819436428  T T T
  0.375060620991   0.625609567447   0.182396414514  T T T
  0.376345065255   0.876604276428   0.179664853299  T T T
  0.627450893415   0.125420716150   0.179025730310  T T T
  0.622391836166   0.374752580578   0.180879005275  T T T
  0.625434031890   0.626258003265   0.182405246233  T T T
  0.625971713099   0.877473385384   0.179235449870  T T T
  0.875480451495   0.124947180716   0.179882679049  T T T
  0.876477741176   0.374982437291   0.181009261278  T T T
  0.871915975076   0.624553405839   0.181999292967  T T T
  0.875057962837   0.874601768085   0.180711122388  T T T
  0.000000000000   0.125000000000   0.098587997000  F F F
  0.000000000000   0.375000000000   0.098587997000  F F F
  0.000000000000   0.625000000000   0.098587997000  F F F
  0.000000000000   0.874998987000   0.098587997000  F F F
  0.250000000000   0.125000000000   0.098587997000  F F F
  0.250000000000   0.375000000000   0.098587997000  F F F
  0.250000000000   0.625000000000   0.098587997000  F F F
  0.250000000000   0.874998987000   0.098587997000  F F F
  0.500000000000   0.125000000000   0.098587997000  F F F
  0.500000000000   0.375000000000   0.098587997000  F F F
  0.500000000000   0.625000000000   0.098587997000  F F F
  0.500000000000   0.874998987000   0.098587997000  F F F
  0.749998987000   0.125000000000   0.098587997000  F F F
  0.749998987000   0.375000000000   0.098587997000  F F F
  0.749998987000   0.625000000000   0.098587997000  F F F
  0.749998987000   0.874998987000   0.098587997000  F F F
  0.125692837395   0.007922923460   0.261573740811  T T T
  0.125898057975   0.248489800939   0.262026024793  T T T
  0.129383320631   0.495522483403   0.266001167972  T T T
  0.127282196294   0.759607707209   0.264379484108  T T T
  0.375618510833   0.011693716261   0.260616857404  T T T
  0.375670249025   0.240532995823   0.260598135580  T T T
  0.374327259788   0.489770130456   0.265524197685  T T T
  0.379618762283   0.779585576905   0.261890263519  T T T
  0.625700104701   0.012222276227   0.260741497882  T T T
  0.624847681432   0.241155653265   0.260640107177  T T T
  0.625428220660   0.491640030148   0.265213971763  T T T
  0.624024346225   0.787634022667   0.260818512519  T T T
  0.875814473308   0.008868398623   0.261473974864  T T T
  0.874632678892   0.249355920444   0.262081834636  T T T
  0.870938933347   0.496516080992   0.266058834952  T T T
  0.875278960782   0.760721354093   0.264188913886  T T T
  0.124919611484   0.999436821760   0.125518535167  T T T
  0.124951311699   0.250404937959   0.125612636217  T T T
  0.124573117114   0.500450460166   0.127457519382  T T T
  0.125371385544   0.749148522101   0.127184604538  T T T
  0.374772386140   0.000044709241   0.124603527611  T T T
  0.374199175353   0.250529004671   0.124774597725  T T T
  0.375158856191   0.500834824247   0.126873534821  T T T
  0.374840182387   0.749857111452   0.126617907669  T T T
  0.625132193390   0.000757224539   0.124521877869  T T T
  0.625576507973   0.251070940590   0.124801737634  T T T
  0.624659472159   0.501271398649   0.126931488404  T T T
  0.625422651412   0.750362565689   0.126531256240  T T T
  0.875294497581   0.999585008193   0.125476174381  T T T
  0.874905039807   0.250622854687   0.125646801470  T T T
  0.875243991786   0.500523374199   0.127411550563  T T T
  0.874996894163   0.749243286081   0.127044541393  T T T
  0.000288991785   0.129393768208   0.293850939711  T T T
  0.000171905576   0.376135516278   0.292712222702  T T T
  0.000967451515   0.628297640314   0.290942123025  T T T
  0.000877036425   0.882910265752   0.292549176978  T T T
  0.249580570774   0.123162716610   0.298176702030  T T T
  0.255172304835   0.347061525959   0.303463294741  T T T
  0.272491239091   0.683662226456   0.315402576630  T T T
  0.250902719497   0.894357588263   0.298958813214  T T T
  0.500545383697   0.127362535773   0.300114669764  T T T
  0.500330172106   0.350007415601   0.298637222214  T T T
  0.499806654379   0.908601720875   0.302984804939  T T T
  0.751515819579   0.125535820327   0.298706873601  T T T
  0.745169138505   0.349348568847   0.303481706095  T T T
  0.727266098124   0.698550092378   0.319281042830  T T T
  0.752095330157   0.898777181832   0.300386837378  T T T
  0.125000000000   0.125000000000   0.043614000000  F F F
  0.125000000000   0.375000000000   0.043614000000  F F F
  0.125000000000   0.625000000000   0.043614000000  F F F
  0.125000000000   0.874998987000   0.043614000000  F F F
  0.375000000000   0.125000000000   0.043614000000  F F F
  0.375000000000   0.375000000000   0.043614000000  F F F
  0.375000000000   0.625000000000   0.043614000000  F F F
  0.375000000000   0.874998987000   0.043614000000  F F F
  0.625000000000   0.125000000000   0.043614000000  F F F
  0.625000000000   0.375000000000   0.043614000000  F F F
  0.625000000000   0.625000000000   0.043614000000  F F F
  0.625000000000   0.874998987000   0.043614000000  F F F
  0.874998987000   0.125000000000   0.043614000000  F F F
  0.874998987000   0.375000000000   0.043614000000  F F F
  0.874998987000   0.625000000000   0.043614000000  F F F
  0.874998987000   0.874998987000   0.043614000000  F F F
  0.000677920177   0.995676566533   0.207543430382  T T T
  0.000252945590   0.245898753814   0.208101547013  T T T
  0.000240266798   0.498053766207   0.210665669803  T T T
  0.001112281470   0.744011565035   0.209142165517  T T T
  0.250401701813  -0.000862969976   0.207556926932  T T T
  0.249962245608   0.247545551075   0.207622891346  T T T
  0.251666809635   0.490803110790   0.208306629923  T T T
  0.252716533778   0.752428461706   0.210586373214  T T T
  0.500720041231   0.002318828862   0.206951229999  T T T
  0.500250634991   0.243637878920   0.205919189096  T T T
  0.499840354820   0.498295644933   0.210177204777  T T T
  0.501549767158   0.754016893161   0.208618840724  T T T
  0.750954853550   0.000199532488   0.207626963849  T T T
  0.750543298065   0.248548471339   0.207661614894  T T T
  0.748619964687   0.492208446292   0.208459114914  T T T
  0.749657926161   0.752099357650   0.210426346606  T T T
  0.388234574488   0.738478456283   0.420626167502  T T T
  0.327041544073   0.593820535674   0.483830064850  T T T
  0.335825710485   0.726466453695   0.525148294184  T T T
  0.000677344323   0.996421902399   0.274652926303  T T T
  0.000208988429   0.243056379783   0.275021154942  T T T
  0.000226700708   0.492388655833   0.276102935836  T T T
  0.001308221250   0.744989331710   0.274893233859  T T T
  0.250336193953   0.007160418428   0.274296841981  T T T
  0.250140766138   0.235853230815   0.274747202222  T T T
  0.248394890056   0.454996827644   0.274987874126  T T T
  0.252639715771   0.778414323982   0.277640656049  T T T
  0.500690667431   0.016047863820   0.273599759307  T T T
  0.500260510988   0.234940706921   0.271864433379  T T T
  0.499973614137   0.463823014722   0.274570847736  T T T
  0.501410873075   0.802060023531   0.273992232499  T T T
  0.751222773336   0.010364489122   0.274455055248  T T T
  0.750344598328   0.238010651045   0.274875523652  T T T
  0.751135051566   0.457747204547   0.275332852919  T T T
  0.751466337870   0.783800400189   0.277715135615  T T T
  0.124938386002   0.124727345748   0.111683962583  T T T
  0.124805013978   0.375389874271   0.112127180039  T T T
  0.125044793535   0.625173142981   0.112306664807  T T T
  0.124927262327   0.874044032024   0.112066109448  T T T
  0.374876570189   0.124634674158   0.111072051562  T T T
  0.375050616928   0.375085110719   0.111739010754  T T T
  0.374859038479   0.626286124645   0.111983911981  T T T
  0.374946925376   0.875050637528   0.111549004045  T T T
  0.625171165583   0.125255548101   0.111077042315  T T T
  0.624971325083   0.375753922925   0.111800968058  T T T
  0.625111651533   0.626596869744   0.112039353543  T T T
  0.625070893252   0.875855093015   0.111409486946  T T T
  0.875000769713   0.124930556298   0.111719829360  T T T
  0.875167233489   0.375582806254   0.112133677720  T T T
  0.875001169896   0.625122216739   0.112249562940  T T T
  0.875036752246   0.874271306476   0.112040173486  T T T
  0.000000000000   0.125000000000   0.030159000000  F F F
  0.000000000000   0.375000000000   0.030159000000  F F F
  0.000000000000   0.625000000000   0.030159000000  F F F
  0.000000000000   0.874998987000   0.030159000000  F F F
  0.250000000000   0.125000000000   0.030159000000  F F F
  0.250000000000   0.375000000000   0.030159000000  F F F
  0.250000000000   0.625000000000   0.030159000000  F F F
  0.250000000000   0.874998987000   0.030159000000  F F F
  0.500000000000   0.125000000000   0.030159000000  F F F
  0.500000000000   0.375000000000   0.030159000000  F F F
  0.500000000000   0.625000000000   0.030159000000  F F F
  0.500000000000   0.874998987000   0.030159000000  F F F
  0.749998987000   0.125000000000   0.030159000000  F F F
  0.749998987000   0.375000000000   0.030159000000  F F F
  0.749998987000   0.625000000000   0.030159000000  F F F
  0.749998987000   0.874998987000   0.030159000000  F F F
  0.124992550282   0.000072696065   0.193592084802  T T T
  0.124479116350   0.250020499228   0.193663622427  T T T
  0.127352791252   0.500682087365   0.195577766179  T T T
  0.128510119017   0.750209212966   0.195971801450  T T T
  0.375047810278   0.000657321737   0.192811753097  T T T
  0.374034464847   0.249421650904   0.192476235911  T T T
  0.374579315049   0.501207333051   0.193865600243  T T T
  0.377459261330   0.751626335969   0.195018920743  T T T
  0.626519478079   0.001352157648   0.192817707956  T T T
  0.626520832375   0.249976596166   0.192468114305  T T T
  0.625532948055   0.501883672975   0.194080129882  T T T
  0.625421022154   0.752671645296   0.194624939775  T T T
  0.876253487414   0.000274358542   0.193572820937  T T T
  0.875894292255   0.250262431361   0.193660554601  T T T
  0.872965886146   0.500782889099   0.195693562218  T T T
  0.873417158819   0.750091581592   0.195749083032  T T T
