Au C Cu O Ti
1.0
 15.213700294500   0.000000000000   0.000000000000
  0.000000000000  15.213700294500   0.000000000000
  0.000000000000   0.000000000000  29.000000000000
Au C Cu O Ti
  3   1  10 138  64
Selective dynamics
Direct
  0.555916753213   0.282190774038   0.431247247349  T T T
  0.443650062470   0.411711807379   0.427629297194  T T T
  0.544506174971   0.663011798272   0.428522092907  T T T
  0.491535369122   0.754079639740   0.460645600014  T T T
  0.429345551711   0.390660164005   0.342437942611  T T T
  0.377416233928   0.242790398858   0.369486871606  T T T
  0.570031394734   0.191622287704   0.358710493357  T T T
  0.262959641984   0.373156787083   0.339484462356  T T T
  0.611576752755   0.407581357322   0.329401760352  T T T
  0.398079184902   0.654576930734   0.368256446774  T T T
  0.339015795046   0.498489073685   0.381880906447  T T T
  0.619256742668   0.465158499835   0.423985906999  T T T
  0.702823038279   0.333440463483   0.393822633123  T T T
  0.501754001447   0.521123595055   0.369284259926  T T T
  0.000000000000   0.000000000000   0.016705001000  F F F
  0.000000000000   0.250000000000   0.016705001000  F F F
  0.000000000000   0.500000000000   0.016705001000  F F F
  0.000000000000   0.749998987000   0.016705001000  F F F
  0.250000000000   0.000000000000   0.016705001000  F F F
  0.250000000000   0.250000000000   0.016705001000  F F F
  0.250000000000   0.500000000000   0.016705001000  F F F
  0.250000000000   0.749998987000   0.016705001000  F F F
  0.500000000000   0.000000000000   0.016705001000  F F F
  0.500000000000   0.250000000000   0.016705001000  F F F
  0.500000000000   0.500000000000   0.016705001000  F F F
  0.500000000000   0.749998987000   0.016705001000  F F F
  0.749998987000   0.000000000000   0.016705001000  F F F
  0.749998987000   0.250000000000   0.016705001000  F F F
  0.749998987000   0.500000000000   0.016705001000  F F F
  0.749998987000   0.749998987000   0.016705001000  F F F
  0.125403358880   0.124636268681   0.180914536329  T T T
  0.128786349046   0.374110943174   0.182606269845  T T T
  0.123122685321   0.624534019339   0.180331893399  T T T
  0.122332660148   0.874201195305   0.179224511774  T T T
  0.373453674878   0.124405311299   0.180233103120  T T T
  0.368806441976   0.373728410536   0.181640718581  T T T
  0.376441604596   0.624936319020   0.180838297330  T T T
  0.376823758340   0.875336411291   0.178639279212  T T T
  0.625713095370   0.124118145109   0.180081672194  T T T
  0.626533456366   0.374271526532   0.181711359370  T T T
  0.621114412490   0.625018277149   0.180217524683  T T T
  0.622438164549   0.874467159384   0.179075641008  T T T
  0.875306273211   0.123501018479   0.181110061155  T T T
  0.870044119643   0.373435653079   0.182533512201  T T T
  0.873382321871   0.623475362514   0.180882433668  T T T
  0.878163618863   0.872761643355   0.178821237027  T T T
  0.000000000000   0.125000000000   0.098587997000  F F F
  0.000000000000   0.375000000000   0.098587997000  F F F
  0.000000000000   0.625000000000   0.098587997000  F F F
  0.000000000000   0.874998987000   0.098587997000  F F F
  0.250000000000   0.125000000000   0.098587997000  F F F
  0.250000000000   0.375000000000   0.098587997000  F F F
  0.250000000000   0.625000000000   0.098587997000  F F F
  0.250000000000   0.874998987000   0.098587997000  F F F
  0.500000000000   0.125000000000   0.098587997000  F F F
  0.500000000000   0.375000000000   0.098587997000  F F F
  0.500000000000   0.625000000000   0.098587997000  F F F
  0.500000000000   0.874998987000   0.098587997000  F F F
  0.749998987000   0.125000000000   0.098587997000  F F F
  0.749998987000   0.375000000000   0.098587997000  F F F
  0.749998987000   0.625000000000   0.098587997000  F F F
  0.749998987000   0.874998987000   0.098587997000  F F F
  0.125837057914   0.996372455444   0.260586052774  T T T
  0.128114053424   0.246033992103   0.267232437226  T T T
  0.125277131369   0.511379245312   0.264215559121  T T T
  0.125071710442   0.756877162511   0.260765338529  T T T
  0.376146097230   0.996916707042   0.260216251221  T T T
  0.374358075561   0.244228885469   0.264252982638  T T T
  0.370228644206   0.501802317624   0.263996981148  T T T
  0.374864750934   0.767663356264   0.259618271572  T T T
  0.626119787105   0.996163241433   0.259952171197  T T T
  0.625391708492   0.246469581386   0.262814027307  T T T
  0.619654286662   0.517356862381   0.261659531940  T T T
  0.622591804067   0.758749603428   0.261495726014  T T T
  0.876993200707   0.984850404878   0.259332501324  T T T
  0.870699003381   0.249332918558   0.267007728861  T T T
  0.872050184611   0.508146561518   0.265291555247  T T T
  0.874269946079   0.757180610415   0.261262306737  T T T
  0.125308752047   0.000543446344   0.124913532317  T T T
  0.124706846525   0.250512486541   0.128174494818  T T T
  0.124326537090   0.498625470012   0.127179242200  T T T
  0.124915465332   0.748951803171   0.124894354646  T T T
  0.375292476577   0.000612158681   0.124395515723  T T T
  0.375069656257   0.250277480656   0.126759915999  T T T
  0.374052823331   0.499055504865   0.126661870536  T T T
  0.374718144770   0.749145527271   0.124690289000  T T T
  0.625151196165   0.000135706940   0.124300200047  T T T
  0.625337415266   0.250293986070   0.126430760734  T T T
  0.624923435870   0.499317460104   0.126464135127  T T T
  0.625688457953   0.749122148796   0.125090433833  T T T
  0.875685701430  -0.000282983478   0.124642981685  T T T
  0.875015107064   0.249855013920   0.128153924152  T T T
  0.874583501097   0.498110216651   0.127724184808  T T T
  0.874456139573   0.747886518660   0.125193083145  T T T
  0.997869025095   0.122037471314   0.291695142982  T T T
  0.000851083921   0.378850247150   0.291767960997  T T T
 -0.000538079224   0.632801082310   0.292985565352  T T T
  0.002761197776   0.876603803005   0.294068050954  T T T
  0.250686941395   0.100786206084   0.296824825864  T T T
  0.245906639508   0.489148747224   0.336029046875  T T T
  0.257827837067   0.653218599948   0.296930225193  T T T
  0.249459450281   0.877212412650   0.298166911502  T T T
  0.502859755876   0.119810672450   0.293824942768  T T T
  0.509704366175   0.371826544442   0.292663991108  T T T
  0.500985251014   0.885649409355   0.295321038965  T T T
  0.764203507799   0.097356320346   0.287057769319  T T T
  0.726505783659   0.455201124818   0.326652595571  T T T
  0.747657986898   0.646885068955   0.300217480802  T T T
  0.748529878611   0.871748503456   0.298526666096  T T T
  0.125000000000   0.125000000000   0.043614000000  F F F
  0.125000000000   0.375000000000   0.043614000000  F F F
  0.125000000000   0.625000000000   0.043614000000  F F F
  0.125000000000   0.874998987000   0.043614000000  F F F
  0.375000000000   0.125000000000   0.043614000000  F F F
  0.375000000000   0.375000000000   0.043614000000  F F F
  0.375000000000   0.625000000000   0.043614000000  F F F
  0.375000000000   0.874998987000   0.043614000000  F F F
  0.625000000000   0.125000000000   0.043614000000  F F F
  0.625000000000   0.375000000000   0.043614000000  F F F
  0.625000000000   0.625000000000   0.043614000000  F F F
  0.625000000000   0.874998987000   0.043614000000  F F F
  0.874998987000   0.125000000000   0.043614000000  F F F
  0.874998987000   0.375000000000   0.043614000000  F F F
  0.874998987000   0.625000000000   0.043614000000  F F F
  0.874998987000   0.874998987000   0.043614000000  F F F
  0.001238981653   0.996760828084   0.206691731953  T T T
  0.999736688770   0.245785999664   0.211615105379  T T T
 -0.001727936413   0.493458707762   0.210058760823  T T T
 -0.000844005137   0.744731275681   0.207408441703  T T T
  0.250454824881   0.992672297514   0.205714251053  T T T
  0.249727703434   0.240831614086   0.211414853472  T T T
  0.248115269883   0.508011018048   0.209460503550  T T T
  0.249611981798   0.752867636096   0.205668201489  T T T
  0.500615996455   0.001124116519   0.205908450433  T T T
  0.499176115453   0.246461758383   0.209298283371  T T T
  0.496318184399   0.493791303271   0.208949776489  T T T
  0.499459041264   0.754538072688   0.206470481445  T T T
  0.750985608822   0.988957925874   0.204163378972  T T T
  0.749386652557   0.239312294835   0.211220954409  T T T
  0.747257070598   0.502186012625   0.210923878589  T T T
  0.748595898345   0.750334246305   0.207489156843  T T T
  0.482674933393   0.688224474636   0.326087355273  T T T
  0.492936592170   0.631551917003   0.285184510361  T T T
  0.655267707568   0.362725190212   0.450668677585  T T T
  0.604750426100   0.570846334344   0.394594006561  T T T
  0.686381315460   0.189821058172   0.342154088713  T T T
  0.736006192991   0.276854806620   0.340671344861  T T T
  0.472914546564   0.198611189739   0.397428257469  T T T
  0.269671613494   0.256588425780   0.341245589346  T T T
  0.290376903492   0.573725010069   0.428492225452  T T T
  0.317331809761   0.654574982925   0.414838045112  T T T
  0.457273136944   0.809978033229   0.480364770354  T T T
  0.000649903162   0.990218337648   0.274113901445  T T T
  0.998159249237   0.239582530032   0.276731910141  T T T
 -0.001696044046   0.494342248636   0.276076877323  T T T
 -0.000693904033   0.745966221722   0.274714153728  T T T
  0.250304092586   0.987733863963   0.272158387252  T T T
  0.250097741436   0.214972511108   0.281548004441  T T T
  0.247495127418   0.538303085195   0.279267336304  T T T
  0.249387785786   0.765121162447   0.271932115347  T T T
  0.501208146060   0.001425364605   0.271911098180  T T T
  0.499717920157   0.238430139139   0.275412987811  T T T
  0.496157449862   0.501325653800   0.275383024816  T T T
  0.498871757934   0.771460409989   0.274517452480  T T T
  0.751880208714   0.981464893071   0.270409434011  T T T
  0.746826990167   0.213872266688   0.281554954171  T T T
  0.746677265109   0.529197363459   0.281681265155  T T T
  0.748963697023   0.757176514575   0.274627300089  T T T
  0.124878482084   0.126226277258   0.112151751819  T T T
  0.124922049379   0.374514631359   0.112564444223  T T T
  0.124793747569   0.623453746271   0.111964578472  T T T
  0.124899371744   0.874459270129   0.111484053156  T T T
  0.374930143743   0.125899909746   0.111661200419  T T T
  0.374838775405   0.374575305887   0.112051711701  T T T
  0.375117703865   0.623954783688   0.111900770735  T T T
  0.375012343657   0.874685942762   0.111155931368  T T T
  0.625098799543   0.125879838441   0.111690337135  T T T
  0.625177561881   0.375058545142   0.112184724030  T T T
  0.625034363368   0.623944014812   0.111774238314  T T T
  0.625008130294   0.873862417932   0.111327560412  T T T
  0.875021185432   0.125640323052   0.112333923083  T T T
  0.874837506256   0.374192039276   0.112812641010  T T T
  0.874927421060   0.622483041294   0.112247842982  T T T
  0.875026032034   0.873125796211   0.111454752760  T T T
  0.000000000000   0.125000000000   0.030159000000  F F F
  0.000000000000   0.375000000000   0.030159000000  F F F
  0.000000000000   0.625000000000   0.030159000000  F F F
  0.000000000000   0.874998987000   0.030159000000  F F F
  0.250000000000   0.125000000000   0.030159000000  F F F
  0.250000000000   0.375000000000   0.030159000000  F F F
  0.250000000000   0.625000000000   0.030159000000  F F F
  0.250000000000   0.874998987000   0.030159000000  F F F
  0.500000000000   0.125000000000   0.030159000000  F F F
  0.500000000000   0.375000000000   0.030159000000  F F F
  0.500000000000   0.625000000000   0.030159000000  F F F
  0.500000000000   0.874998987000   0.030159000000  F F F
  0.749998987000   0.125000000000   0.030159000000  F F F
  0.749998987000   0.375000000000   0.030159000000  F F F
  0.749998987000   0.625000000000   0.030159000000  F F F
  0.749998987000   0.874998987000   0.030159000000  F F F
  0.124541368435   0.999822814628   0.192673444393  T T T
  0.127448119750   0.250020612639   0.197350892297  T T T
  0.125110875874   0.499950599492   0.196204923142  T T T
  0.122934805404   0.749663897236   0.193018332034  T T T
  0.375246252966   0.999559319877   0.192056351830  T T T
  0.371805245834   0.249436902036   0.195472652005  T T T
  0.370250891269   0.498939189610   0.195181322161  T T T
  0.376214800873   0.750076185648   0.192677290875  T T T
  0.626328627606   0.999426021298   0.191699399696  T T T
  0.627303670423   0.249778337155   0.195236916266  T T T
  0.624897291329   0.500241049080   0.195461185774  T T T
  0.623280024020   0.749626700780   0.193480262444  T T T
  0.877475391243   0.998504706513   0.192268155563  T T T
  0.871154524771   0.249486716817   0.197631460124  T T T
  0.870113200133   0.499139942950   0.197313065187  T T T
  0.874325632720   0.749001891369   0.193741626443  T T T
