%chk=2d-AuCu.chk
%nprocshared=16
%mem=6GB
# opt freq=noraman upbepbe/gen empiricaldispersion=gd3bj pseudo=read
scf=(intrep,novaracc,maxcycles=1000,yqc)

2d-AuCu

0 2
 Au                 1.33733200    1.32070600    1.59026800
 Au                 1.34299900    1.16531900   -1.69274100
 Au                 1.96825700   -1.69232700    0.07061100
 Cu                -2.75664400    1.07633900   -0.04685400
 Cu                -0.66611100    2.40098300   -0.10447400
 Cu                -1.23597300    1.12013300    1.97729200
 Cu                -1.23646100    0.94995600   -2.06510300
 Cu                -2.18123900   -1.16013500    1.43099900
 Cu                -2.19120100   -1.27369500   -1.32396300
 Cu                 0.24606300   -1.28849100   -2.02305200
 Cu                -0.26770700   -0.04496600    0.00115600
 Cu                 0.26386400   -1.11105900    2.11629000
 Cu                -0.46983300   -2.52166800    0.10398200
 O                 -3.93487500   -0.60631100   -0.68784800
 O                 -3.92468900   -0.51577500    0.76224300

Au Cu 0
LANL2DZ
****
O 0
def2tzvp
****

Au Cu 0
LANL2DZ



