Au Cu O Ti                              
   1.00000000000000     
    15.2137002945000006    0.0000000000000000    0.0000000000000000
     0.0000000000000000   15.2137002945000006    0.0000000000000000
     0.0000000000000000    0.0000000000000000   29.0000000000000000
   Au   Cu   O    Ti
     3    10   129    64
Selective dynamics
Direct
  0.6141561444194443  0.2744286807888005  0.4746464563669120   T   T   T
  0.3666872536765464  0.3554058462976720  0.4812725596156321   T   T   T
  0.5075303906757069  0.5660972758610033  0.4528724434567094   T   T   T
  0.5063522364425673  0.3930925166839306  0.3569551290152451   T   T   T
  0.3921057740091796  0.3192200016176904  0.3973782523242290   T   T   T
  0.5310022801844853  0.2565519383821034  0.3976063521238241   T   T   T
  0.3553050983986308  0.4388604543660399  0.3430703563172143   T   T   T
  0.6603957422128338  0.4067128563268055  0.3325364968040859   T   T   T
  0.4578632778646680  0.5516276052571890  0.3645439775654060   T   T   T
  0.3854637464123763  0.4697931790358290  0.4215384552906851   T   T   T
  0.5154564838758358  0.3981302493056251  0.4483744712635160   T   T   T
  0.6463529372269536  0.3629935519133962  0.4073261146548919   T   T   T
  0.6007538355880911  0.5058200013485410  0.3880280556252670   T   T   T
  0.0000000000000000  0.0000000000000000  0.0167050009999983   F   F   F
  0.0000000000000000  0.2500000000000000  0.0167050009999983   F   F   F
  0.0000000000000000  0.5000000000000000  0.0167050009999983   F   F   F
  0.0000000000000000  0.7499989869999979  0.0167050009999983   F   F   F
  0.2500000000000000  0.0000000000000000  0.0167050009999983   F   F   F
  0.2500000000000000  0.2500000000000000  0.0167050009999983   F   F   F
  0.2500000000000000  0.5000000000000000  0.0167050009999983   F   F   F
  0.2500000000000000  0.7499989869999979  0.0167050009999983   F   F   F
  0.5000000000000000  0.0000000000000000  0.0167050009999983   F   F   F
  0.5000000000000000  0.2500000000000000  0.0167050009999983   F   F   F
  0.5000000000000000  0.5000000000000000  0.0167050009999983   F   F   F
  0.5000000000000000  0.7499989869999979  0.0167050009999983   F   F   F
  0.7499989869999979  0.0000000000000000  0.0167050009999983   F   F   F
  0.7499989869999979  0.2500000000000000  0.0167050009999983   F   F   F
  0.7499989869999979  0.5000000000000000  0.0167050009999983   F   F   F
  0.7499989869999979  0.7499989869999979  0.0167050009999983   F   F   F
  0.1197572770720570  0.1256183486419758  0.1804692846043028   T   T   T
  0.1322238802564417  0.3764932111823112  0.1815845403760363   T   T   T
  0.1249121996277388  0.6268281441455372  0.1802552614759605   T   T   T
  0.1243257693366877  0.8760496550045530  0.1801109444234614   T   T   T
  0.3771787632851323  0.1251659692961533  0.1800978666571590   T   T   T
  0.3678192834656661  0.3754157551564254  0.1814544898591084   T   T   T
  0.3798253445242213  0.6273681372543530  0.1802865151256098   T   T   T
  0.3755958175142154  0.8766779875903496  0.1797360412724620   T   T   T
  0.6255226366214477  0.1266688194446715  0.1805022421123731   T   T   T
  0.6245616986957826  0.3754283502073769  0.1810621629181411   T   T   T
  0.6193887052391593  0.6266562622141242  0.1807286212216992   T   T   T
  0.6269733743479026  0.8774538707089224  0.1801920061140348   T   T   T
  0.8755767664728342  0.1266759668451297  0.1806330128661255   T   T   T
  0.8740823701527396  0.3762204313261409  0.1807702058793561   T   T   T
  0.8764905302602106  0.6252851553294980  0.1808811988951963   T   T   T
  0.8724669031538256  0.8760885315696649  0.1804805928255554   T   T   T
  0.0000000000000000  0.1250000000000000  0.0985879970000028   F   F   F
  0.0000000000000000  0.3750000000000000  0.0985879970000028   F   F   F
  0.0000000000000000  0.6250000000000000  0.0985879970000028   F   F   F
  0.0000000000000000  0.8749989869999979  0.0985879970000028   F   F   F
  0.2500000000000000  0.1250000000000000  0.0985879970000028   F   F   F
  0.2500000000000000  0.3750000000000000  0.0985879970000028   F   F   F
  0.2500000000000000  0.6250000000000000  0.0985879970000028   F   F   F
  0.2500000000000000  0.8749989869999979  0.0985879970000028   F   F   F
  0.5000000000000000  0.1250000000000000  0.0985879970000028   F   F   F
  0.5000000000000000  0.3750000000000000  0.0985879970000028   F   F   F
  0.5000000000000000  0.6250000000000000  0.0985879970000028   F   F   F
  0.5000000000000000  0.8749989869999979  0.0985879970000028   F   F   F
  0.7499989869999979  0.1250000000000000  0.0985879970000028   F   F   F
  0.7499989869999979  0.3750000000000000  0.0985879970000028   F   F   F
  0.7499989869999979  0.6250000000000000  0.0985879970000028   F   F   F
  0.7499989869999979  0.8749989869999979  0.0985879970000028   F   F   F
  0.1242106382477619  0.0051657385159127  0.2619172270655005   T   T   T
  0.1317948145854113  0.2602667132383352  0.2645980648768874   T   T   T
  0.1248376818397964  0.5206657565849765  0.2622263286403902   T   T   T
  0.1247848113006113  0.7614260515830904  0.2621393239361834   T   T   T
  0.3738921498774521  0.0052278495959813  0.2610376640978737   T   T   T
  0.3689957345160848  0.2568423413571211  0.2649088911166991   T   T   T
  0.3806468536489783  0.5258270920333261  0.2621041212845773   T   T   T
  0.3752583702982711  0.7691054925157460  0.2618163577290769   T   T   T
  0.6240716066556338  0.0126031677102723  0.2622787242041507   T   T   T
  0.6223065106322317  0.2491459170807606  0.2636992948694146   T   T   T
  0.6189303616139866  0.5130616580481215  0.2638135288817526   T   T   T
  0.6258343883881067  0.7690389155988430  0.2618571035056189   T   T   T
  0.8747953957002218  0.0136916223860633  0.2626136843940953   T   T   T
  0.8757113713683213  0.2601406717909813  0.2629391663090237   T   T   T
  0.8739585198382749  0.5056953675140851  0.2633439582310494   T   T   T
  0.8745132470718285  0.7612745318017792  0.2619324178821814   T   T   T
  0.1251458553839263  0.0011681800475667  0.1255391093308929   T   T   T
  0.1245681728006803  0.2515619367038688  0.1265158367628103   T   T   T
  0.1239720797279638  0.5010698410029546  0.1266025292677783   T   T   T
  0.1250081692111568  0.7511349305429802  0.1257887623491105   T   T   T
  0.3749679185122476  0.0009448071233753  0.1250571434522571   T   T   T
  0.3758565006408544  0.2512028632787478  0.1262637322588855   T   T   T
  0.3740672678072626  0.5011499531307595  0.1263747016181092   T   T   T
  0.3747184139940997  0.7512185131103286  0.1256177698787790   T   T   T
  0.6233794668492224  0.0015214545254808  0.1258406409299585   T   T   T
  0.6234293056325223  0.2511512561061112  0.1263708431525574   T   T   T
  0.6252411122372101  0.5011227802013501  0.1262831736637700   T   T   T
  0.6241771242696833  0.7514083656958710  0.1259383924663469   T   T   T
  0.8754494886176416  0.0011567618899765  0.1260419298913878   T   T   T
  0.8756300883599250  0.2511343278507389  0.1262949579660377   T   T   T
  0.8744269565408596  0.5004825791896064  0.1265388787523906   T   T   T
  0.8751699608953740  0.7504508901278510  0.1260307529987121   T   T   T
  0.0023559817989689  0.1378850812766834  0.2929583300099572   T   T   T
  0.0058766786585277  0.3855771307781790  0.2933197849150689   T   T   T
 -0.0027787060679383  0.6360738657114253  0.2925002395375990   T   T   T
 -0.0027289818502009  0.8855280152775602  0.2931638014986698   T   T   T
  0.2488170332055443  0.1155009232974004  0.2947953817243267   T   T   T
  0.2505817065921032  0.4378779249616652  0.3122850814545460   T   T   T
  0.2526504392855388  0.6505462354714903  0.2998306923751474   T   T   T
  0.2491670454275591  0.8821415079355799  0.2961626976104307   T   T   T
  0.4938748019575579  0.1268598334663482  0.2967531827276995   T   T   T
  0.4976016511004275  0.3712669032040466  0.2876126556888591   T   T   T
  0.5001342853786521  0.8975374743455966  0.2995174141958177   T   T   T
  0.7514724826588765  0.1332102066979781  0.2940727443604979   T   T   T
  0.7470324541531009  0.3819968384337860  0.2902172020660219   T   T   T
  0.7488681251466329  0.6366267798667145  0.2892373522385053   T   T   T
  0.7515380643139056  0.8870834686501343  0.2910119272439111   T   T   T
  0.1250000000000000  0.1250000000000000  0.0436139999999980   F   F   F
  0.1250000000000000  0.3750000000000000  0.0436139999999980   F   F   F
  0.1250000000000000  0.6250000000000000  0.0436139999999980   F   F   F
  0.1250000000000000  0.8749989869999979  0.0436139999999980   F   F   F
  0.3750000000000000  0.1250000000000000  0.0436139999999980   F   F   F
  0.3750000000000000  0.3750000000000000  0.0436139999999980   F   F   F
  0.3750000000000000  0.6250000000000000  0.0436139999999980   F   F   F
  0.3750000000000000  0.8749989869999979  0.0436139999999980   F   F   F
  0.6250000000000000  0.1250000000000000  0.0436139999999980   F   F   F
  0.6250000000000000  0.3750000000000000  0.0436139999999980   F   F   F
  0.6250000000000000  0.6250000000000000  0.0436139999999980   F   F   F
  0.6250000000000000  0.8749989869999979  0.0436139999999980   F   F   F
  0.8749989869999979  0.1250000000000000  0.0436139999999980   F   F   F
  0.8749989869999979  0.3750000000000000  0.0436139999999980   F   F   F
  0.8749989869999979  0.6250000000000000  0.0436139999999980   F   F   F
  0.8749989869999979  0.8749989869999979  0.0436139999999980   F   F   F
 -0.0015193169201479  0.9956202726272916  0.2081096194772938   T   T   T
  0.0022409823795326  0.2510270378069629  0.2091699051996989   T   T   T
  0.0004334482119965  0.4951717675306967  0.2087273677786071   T   T   T
 -0.0000880184484404  0.7482507073391944  0.2078522084412506   T   T   T
  0.2484940076543889  0.9969196181035702  0.2066317853548034   T   T   T
  0.2500006908742987  0.2302640048145858  0.2069245618007399   T   T   T
  0.2515262915288560  0.5070631043629115  0.2094954797533664   T   T   T
  0.2507767485826808  0.7495455087971090  0.2083482004551947   T   T   T
  0.5000513122718647  0.0006062033484866  0.2077146399036892   T   T   T
  0.4971634613154698  0.2466014698292123  0.2098858566979520   T   T   T
  0.4985717038382795  0.4896134980491202  0.2074828064605083   T   T   T
  0.5001497265780178  0.7563963764457332  0.2092769712978284   T   T   T
  0.7498230123105383  0.0021103310670028  0.2084745388509609   T   T   T
  0.7492682695987138  0.2491256944577415  0.2085884361033543   T   T   T
  0.7474663811794311  0.5052052851907065  0.2085883587401818   T   T   T
  0.7493376601357885  0.7491573775429214  0.2074173641856157   T   T   T
  0.5242335859956081  0.6518920193033273  0.3568804563742907   T   T   T
  0.5027351063883709  0.6867646103018328  0.3129876875467214   T   T   T
 -0.0011926246632789  0.9988621280560823  0.2747483260276621   T   T   T
  0.0015850169693205  0.2516262404649809  0.2758406362441114   T   T   T
  0.0016899590093728  0.4999945649148405  0.2750133527129262   T   T   T
 -0.0004320551002587  0.7498653833083123  0.2744508089105214   T   T   T
  0.2485623219667537  0.9935551207012628  0.2727019370307927   T   T   T
  0.2497055702312256  0.2232328140752697  0.2717753361509437   T   T   T
  0.2501278071224987  0.5329648120621512  0.2772967707610644   T   T   T
  0.2510210279052521  0.7620250485386008  0.2748380010944172   T   T   T
  0.4991285413796607  0.0102804615118761  0.2740450780336940   T   T   T
  0.4977265996539653  0.2421882844494713  0.2773038287566434   T   T   T
  0.4977560961048645  0.4874498885810022  0.2761868383724175   T   T   T
  0.5005158836655221  0.7827938073176431  0.2774163267384037   T   T   T
  0.7502338012190901  0.0055890256304788  0.2746894387114797   T   T   T
  0.7503244690594549  0.2488857312246250  0.2746365251539839   T   T   T
  0.7491949679961727  0.5159464578664498  0.2739869882923832   T   T   T
  0.7494062145271552  0.7608178094330303  0.2730425136008932   T   T   T
  0.1246994974173462  0.1255811683180907  0.1117262725526744   T   T   T
  0.1251113147502420  0.3775953878829010  0.1118883065031279   T   T   T
  0.1248082853302239  0.6263270889311686  0.1117644450966062   T   T   T
  0.1250188803833541  0.8754800044912501  0.1115820009714922   T   T   T
  0.3753484752411921  0.1251398864718422  0.1116617987229008   T   T   T
  0.3747051764858276  0.3770533149805814  0.1117848186894784   T   T   T
  0.3752512825102640  0.6270645458184627  0.1116528558070318   T   T   T
  0.3751013584583530  0.8753322891616248  0.1113618755247453   T   T   T
  0.6248901101672517  0.1263686706842201  0.1117745446408247   T   T   T
  0.6250239917707024  0.3759033596319297  0.1118550246519741   T   T   T
  0.6248430692339570  0.6269857225302859  0.1117749052072517   T   T   T
  0.6249462573448294  0.8762268883515092  0.1117398358082171   T   T   T
  0.8750237940263110  0.1261363301868971  0.1118683311713158   T   T   T
  0.8750306006840379  0.3760553212976299  0.1117770221776241   T   T   T
  0.8753115282563708  0.6250710245609972  0.1119956920677186   T   T   T
  0.8750185429101260  0.8754647561806311  0.1119330083088551   T   T   T
  0.0000000000000000  0.1250000000000000  0.0301589999999976   F   F   F
  0.0000000000000000  0.3750000000000000  0.0301589999999976   F   F   F
  0.0000000000000000  0.6250000000000000  0.0301589999999976   F   F   F
  0.0000000000000000  0.8749989869999979  0.0301589999999976   F   F   F
  0.2500000000000000  0.1250000000000000  0.0301589999999976   F   F   F
  0.2500000000000000  0.3750000000000000  0.0301589999999976   F   F   F
  0.2500000000000000  0.6250000000000000  0.0301589999999976   F   F   F
  0.2500000000000000  0.8749989869999979  0.0301589999999976   F   F   F
  0.5000000000000000  0.1250000000000000  0.0301589999999976   F   F   F
  0.5000000000000000  0.3750000000000000  0.0301589999999976   F   F   F
  0.5000000000000000  0.6250000000000000  0.0301589999999976   F   F   F
  0.5000000000000000  0.8749989869999979  0.0301589999999976   F   F   F
  0.7499989869999979  0.1250000000000000  0.0301589999999976   F   F   F
  0.7499989869999979  0.3750000000000000  0.0301589999999976   F   F   F
  0.7499989869999979  0.6250000000000000  0.0301589999999976   F   F   F
  0.7499989869999979  0.8749989869999979  0.0301589999999976   F   F   F
  0.1224268423336508  0.0013433663978849  0.1932297291493343   T   T   T
  0.1251876286675127  0.2523521537253217  0.1934822137248713   T   T   T
  0.1273952307498717  0.5028175321398295  0.1952165755616893   T   T   T
  0.1251801595543638  0.7519362963348482  0.1942527421161622   T   T   T
  0.3746335759918657  0.0007019157471691  0.1928261210297400   T   T   T
  0.3750104283602641  0.2516547130196736  0.1931452158815223   T   T   T
  0.3743994815044899  0.5031931933578495  0.1942746250363448   T   T   T
  0.3771287823173063  0.7522627396428492  0.1944779106780777   T   T   T
  0.6250256161594894  0.0019452754109417  0.1937205039644351   T   T   T
  0.6230443788272341  0.2512502154251416  0.1947025639249342   T   T   T
  0.6209572278796813  0.5017203653284530  0.1937767322393872   T   T   T
  0.6221931667184032  0.7520268491425771  0.1942338287087265   T   T   T
  0.8743493632318500  0.0016808053034810  0.1939204942850988   T   T   T
  0.8753556545276124  0.2518066842086135  0.1945848408695511   T   T   T
  0.8748372866225897  0.5006383134117955  0.1950028159637771   T   T   T
  0.8749884641051207  0.7508819684630216  0.1938189650365524   T   T   T
