Au Cu O Ti
1.0
 15.213700294500   0.000000000000   0.000000000000
  0.000000000000  15.213700294500   0.000000000000
  0.000000000000   0.000000000000  29.000000000000
Au Cu O Ti
  3  10 129  64
Selective dynamics
Direct
  0.614156144419   0.274428680789   0.474646456367  T T T
  0.366687253677   0.355405846298   0.481272559616  T T T
  0.507530390676   0.566097275861   0.452872443457  T T T
  0.506352236443   0.393092516684   0.356955129015  T T T
  0.392105774009   0.319220001618   0.397378252324  T T T
  0.531002280184   0.256551938382   0.397606352124  T T T
  0.355305098399   0.438860454366   0.343070356317  T T T
  0.660395742213   0.406712856327   0.332536496804  T T T
  0.457863277865   0.551627605257   0.364543977565  T T T
  0.385463746412   0.469793179036   0.421538455291  T T T
  0.515456483876   0.398130249306   0.448374471264  T T T
  0.646352937227   0.362993551913   0.407326114655  T T T
  0.600753835588   0.505820001349   0.388028055625  T T T
  0.000000000000   0.000000000000   0.016705001000  F F F
  0.000000000000   0.250000000000   0.016705001000  F F F
  0.000000000000   0.500000000000   0.016705001000  F F F
  0.000000000000   0.749998987000   0.016705001000  F F F
  0.250000000000   0.000000000000   0.016705001000  F F F
  0.250000000000   0.250000000000   0.016705001000  F F F
  0.250000000000   0.500000000000   0.016705001000  F F F
  0.250000000000   0.749998987000   0.016705001000  F F F
  0.500000000000   0.000000000000   0.016705001000  F F F
  0.500000000000   0.250000000000   0.016705001000  F F F
  0.500000000000   0.500000000000   0.016705001000  F F F
  0.500000000000   0.749998987000   0.016705001000  F F F
  0.749998987000   0.000000000000   0.016705001000  F F F
  0.749998987000   0.250000000000   0.016705001000  F F F
  0.749998987000   0.500000000000   0.016705001000  F F F
  0.749998987000   0.749998987000   0.016705001000  F F F
  0.119757277072   0.125618348642   0.180469284604  T T T
  0.132223880256   0.376493211182   0.181584540376  T T T
  0.124912199628   0.626828144146   0.180255261476  T T T
  0.124325769337   0.876049655005   0.180110944423  T T T
  0.377178763285   0.125165969296   0.180097866657  T T T
  0.367819283466   0.375415755156   0.181454489859  T T T
  0.379825344524   0.627368137254   0.180286515126  T T T
  0.375595817514   0.876677987590   0.179736041272  T T T
  0.625522636621   0.126668819445   0.180502242112  T T T
  0.624561698696   0.375428350207   0.181062162918  T T T
  0.619388705239   0.626656262214   0.180728621222  T T T
  0.626973374348   0.877453870709   0.180192006114  T T T
  0.875576766473   0.126675966845   0.180633012866  T T T
  0.874082370153   0.376220431326   0.180770205879  T T T
  0.876490530260   0.625285155329   0.180881198895  T T T
  0.872466903154   0.876088531570   0.180480592826  T T T
  0.000000000000   0.125000000000   0.098587997000  F F F
  0.000000000000   0.375000000000   0.098587997000  F F F
  0.000000000000   0.625000000000   0.098587997000  F F F
  0.000000000000   0.874998987000   0.098587997000  F F F
  0.250000000000   0.125000000000   0.098587997000  F F F
  0.250000000000   0.375000000000   0.098587997000  F F F
  0.250000000000   0.625000000000   0.098587997000  F F F
  0.250000000000   0.874998987000   0.098587997000  F F F
  0.500000000000   0.125000000000   0.098587997000  F F F
  0.500000000000   0.375000000000   0.098587997000  F F F
  0.500000000000   0.625000000000   0.098587997000  F F F
  0.500000000000   0.874998987000   0.098587997000  F F F
  0.749998987000   0.125000000000   0.098587997000  F F F
  0.749998987000   0.375000000000   0.098587997000  F F F
  0.749998987000   0.625000000000   0.098587997000  F F F
  0.749998987000   0.874998987000   0.098587997000  F F F
  0.124210638248   0.005165738516   0.261917227066  T T T
  0.131794814585   0.260266713238   0.264598064877  T T T
  0.124837681840   0.520665756585   0.262226328640  T T T
  0.124784811301   0.761426051583   0.262139323936  T T T
  0.373892149877   0.005227849596   0.261037664098  T T T
  0.368995734516   0.256842341357   0.264908891117  T T T
  0.380646853649   0.525827092033   0.262104121285  T T T
  0.375258370298   0.769105492516   0.261816357729  T T T
  0.624071606656   0.012603167710   0.262278724204  T T T
  0.622306510632   0.249145917081   0.263699294869  T T T
  0.618930361614   0.513061658048   0.263813528882  T T T
  0.625834388388   0.769038915599   0.261857103506  T T T
  0.874795395700   0.013691622386   0.262613684394  T T T
  0.875711371368   0.260140671791   0.262939166309  T T T
  0.873958519838   0.505695367514   0.263343958231  T T T
  0.874513247072   0.761274531802   0.261932417882  T T T
  0.125145855384   0.001168180048   0.125539109331  T T T
  0.124568172801   0.251561936704   0.126515836763  T T T
  0.123972079728   0.501069841003   0.126602529268  T T T
  0.125008169211   0.751134930543   0.125788762349  T T T
  0.374967918512   0.000944807123   0.125057143452  T T T
  0.375856500641   0.251202863279   0.126263732259  T T T
  0.374067267807   0.501149953131   0.126374701618  T T T
  0.374718413994   0.751218513110   0.125617769879  T T T
  0.623379466849   0.001521454525   0.125840640930  T T T
  0.623429305633   0.251151256106   0.126370843153  T T T
  0.625241112237   0.501122780201   0.126283173664  T T T
  0.624177124270   0.751408365696   0.125938392466  T T T
  0.875449488618   0.001156761890   0.126041929891  T T T
  0.875630088360   0.251134327851   0.126294957966  T T T
  0.874426956541   0.500482579190   0.126538878752  T T T
  0.875169960895   0.750450890128   0.126030752999  T T T
  0.002355981799   0.137885081277   0.292958330010  T T T
  0.005876678659   0.385577130778   0.293319784915  T T T
 -0.002778706068   0.636073865711   0.292500239538  T T T
 -0.002728981850   0.885528015278   0.293163801499  T T T
  0.248817033206   0.115500923297   0.294795381724  T T T
  0.250581706592   0.437877924962   0.312285081455  T T T
  0.252650439286   0.650546235471   0.299830692375  T T T
  0.249167045428   0.882141507936   0.296162697610  T T T
  0.493874801958   0.126859833466   0.296753182728  T T T
  0.497601651100   0.371266903204   0.287612655689  T T T
  0.500134285379   0.897537474346   0.299517414196  T T T
  0.751472482659   0.133210206698   0.294072744360  T T T
  0.747032454153   0.381996838434   0.290217202066  T T T
  0.748868125147   0.636626779867   0.289237352239  T T T
  0.751538064314   0.887083468650   0.291011927244  T T T
  0.125000000000   0.125000000000   0.043614000000  F F F
  0.125000000000   0.375000000000   0.043614000000  F F F
  0.125000000000   0.625000000000   0.043614000000  F F F
  0.125000000000   0.874998987000   0.043614000000  F F F
  0.375000000000   0.125000000000   0.043614000000  F F F
  0.375000000000   0.375000000000   0.043614000000  F F F
  0.375000000000   0.625000000000   0.043614000000  F F F
  0.375000000000   0.874998987000   0.043614000000  F F F
  0.625000000000   0.125000000000   0.043614000000  F F F
  0.625000000000   0.375000000000   0.043614000000  F F F
  0.625000000000   0.625000000000   0.043614000000  F F F
  0.625000000000   0.874998987000   0.043614000000  F F F
  0.874998987000   0.125000000000   0.043614000000  F F F
  0.874998987000   0.375000000000   0.043614000000  F F F
  0.874998987000   0.625000000000   0.043614000000  F F F
  0.874998987000   0.874998987000   0.043614000000  F F F
 -0.001519316920   0.995620272627   0.208109619477  T T T
  0.002240982380   0.251027037807   0.209169905200  T T T
  0.000433448212   0.495171767531   0.208727367779  T T T
 -0.000088018448   0.748250707339   0.207852208441  T T T
  0.248494007654   0.996919618104   0.206631785355  T T T
  0.250000690874   0.230264004815   0.206924561801  T T T
  0.251526291529   0.507063104363   0.209495479753  T T T
  0.250776748583   0.749545508797   0.208348200455  T T T
  0.500051312272   0.000606203348   0.207714639904  T T T
  0.497163461315   0.246601469829   0.209885856698  T T T
  0.498571703838   0.489613498049   0.207482806461  T T T
  0.500149726578   0.756396376446   0.209276971298  T T T
  0.749823012311   0.002110331067   0.208474538851  T T T
  0.749268269599   0.249125694458   0.208588436103  T T T
  0.747466381179   0.505205285191   0.208588358740  T T T
  0.749337660136   0.749157377543   0.207417364186  T T T
  0.524233585996   0.651892019303   0.356880456374  T T T
  0.502735106388   0.686764610302   0.312987687547  T T T
 -0.001192624663   0.998862128056   0.274748326028  T T T
  0.001585016969   0.251626240465   0.275840636244  T T T
  0.001689959009   0.499994564915   0.275013352713  T T T
 -0.000432055100   0.749865383308   0.274450808911  T T T
  0.248562321967   0.993555120701   0.272701937031  T T T
  0.249705570231   0.223232814075   0.271775336151  T T T
  0.250127807122   0.532964812062   0.277296770761  T T T
  0.251021027905   0.762025048539   0.274838001094  T T T
  0.499128541380   0.010280461512   0.274045078034  T T T
  0.497726599654   0.242188284449   0.277303828757  T T T
  0.497756096105   0.487449888581   0.276186838372  T T T
  0.500515883666   0.782793807318   0.277416326738  T T T
  0.750233801219   0.005589025630   0.274689438711  T T T
  0.750324469059   0.248885731225   0.274636525154  T T T
  0.749194967996   0.515946457866   0.273986988292  T T T
  0.749406214527   0.760817809433   0.273042513601  T T T
  0.124699497417   0.125581168318   0.111726272553  T T T
  0.125111314750   0.377595387883   0.111888306503  T T T
  0.124808285330   0.626327088931   0.111764445097  T T T
  0.125018880383   0.875480004491   0.111582000971  T T T
  0.375348475241   0.125139886472   0.111661798723  T T T
  0.374705176486   0.377053314981   0.111784818689  T T T
  0.375251282510   0.627064545818   0.111652855807  T T T
  0.375101358458   0.875332289162   0.111361875525  T T T
  0.624890110167   0.126368670684   0.111774544641  T T T
  0.625023991771   0.375903359632   0.111855024652  T T T
  0.624843069234   0.626985722530   0.111774905207  T T T
  0.624946257345   0.876226888352   0.111739835808  T T T
  0.875023794026   0.126136330187   0.111868331171  T T T
  0.875030600684   0.376055321298   0.111777022178  T T T
  0.875311528256   0.625071024561   0.111995692068  T T T
  0.875018542910   0.875464756181   0.111933008309  T T T
  0.000000000000   0.125000000000   0.030159000000  F F F
  0.000000000000   0.375000000000   0.030159000000  F F F
  0.000000000000   0.625000000000   0.030159000000  F F F
  0.000000000000   0.874998987000   0.030159000000  F F F
  0.250000000000   0.125000000000   0.030159000000  F F F
  0.250000000000   0.375000000000   0.030159000000  F F F
  0.250000000000   0.625000000000   0.030159000000  F F F
  0.250000000000   0.874998987000   0.030159000000  F F F
  0.500000000000   0.125000000000   0.030159000000  F F F
  0.500000000000   0.375000000000   0.030159000000  F F F
  0.500000000000   0.625000000000   0.030159000000  F F F
  0.500000000000   0.874998987000   0.030159000000  F F F
  0.749998987000   0.125000000000   0.030159000000  F F F
  0.749998987000   0.375000000000   0.030159000000  F F F
  0.749998987000   0.625000000000   0.030159000000  F F F
  0.749998987000   0.874998987000   0.030159000000  F F F
  0.122426842334   0.001343366398   0.193229729149  T T T
  0.125187628668   0.252352153725   0.193482213725  T T T
  0.127395230750   0.502817532140   0.195216575562  T T T
  0.125180159554   0.751936296335   0.194252742116  T T T
  0.374633575992   0.000701915747   0.192826121030  T T T
  0.375010428360   0.251654713020   0.193145215882  T T T
  0.374399481504   0.503193193358   0.194274625036  T T T
  0.377128782317   0.752262739643   0.194477910678  T T T
  0.625025616159   0.001945275411   0.193720503964  T T T
  0.623044378827   0.251250215425   0.194702563925  T T T
  0.620957227880   0.501720365328   0.193776732239  T T T
  0.622193166718   0.752026849143   0.194233828709  T T T
  0.874349363232   0.001680805303   0.193920494285  T T T
  0.875355654528   0.251806684209   0.194584840870  T T T
  0.874837286623   0.500638313412   0.195002815964  T T T
  0.874988464105   0.750881968463   0.193818965037  T T T
