Cu O Ti
1.0
 15.213700294500   0.000000000000   0.000000000000
  0.000000000000  15.213700294500   0.000000000000
  0.000000000000   0.000000000000  29.000000000000
Cu O Ti
 13 129  64
Selective dynamics
Direct
  0.378925296794   0.598807734441   0.317275315599  T T T
  0.371384173951   0.741580688710   0.360769898367  T T T
  0.513402098723   0.684845583968   0.333596523826  T T T
  0.524096294045   0.535830419874   0.345053589525  T T T
  0.511302865386   0.762587261827   0.401736331887  T T T
  0.594752115864   0.623676970494   0.404166815807  T T T
  0.646917694545   0.750088904437   0.363004307411  T T T
  0.391640168745   0.474464948689   0.372602338325  T T T
  0.435527220962   0.618195263511   0.400845866638  T T T
  0.518296178995   0.379473022796   0.360781604663  T T T
  0.522782497327   0.483222947359   0.421284710382  T T T
  0.652580669519   0.467887839912   0.371537100966  T T T
  0.672068133341   0.600727306448   0.330084244696  T T T
  0.000000000000   0.000000000000   0.016705001000  F F F
  0.000000000000   0.250000000000   0.016705001000  F F F
  0.000000000000   0.500000000000   0.016705001000  F F F
  0.000000000000   0.749998987000   0.016705001000  F F F
  0.250000000000   0.000000000000   0.016705001000  F F F
  0.250000000000   0.250000000000   0.016705001000  F F F
  0.250000000000   0.500000000000   0.016705001000  F F F
  0.250000000000   0.749998987000   0.016705001000  F F F
  0.500000000000   0.000000000000   0.016705001000  F F F
  0.500000000000   0.250000000000   0.016705001000  F F F
  0.500000000000   0.500000000000   0.016705001000  F F F
  0.500000000000   0.749998987000   0.016705001000  F F F
  0.749998987000   0.000000000000   0.016705001000  F F F
  0.749998987000   0.250000000000   0.016705001000  F F F
  0.749998987000   0.500000000000   0.016705001000  F F F
  0.749998987000   0.749998987000   0.016705001000  F F F
  0.124419652523   0.124385552078   0.179809262391  T T T
  0.122787640737   0.374454176509   0.180983692684  T T T
  0.128184107530   0.623872370221   0.182047822645  T T T
  0.125886682537   0.873937929063   0.180814280414  T T T
  0.372813640580   0.124445387520   0.178790472466  T T T
  0.376729270929   0.373955199399   0.180901272262  T T T
  0.374130690761   0.626040340366   0.182038496096  T T T
  0.375274083648   0.876720007673   0.179106770887  T T T
  0.626462184558   0.124460533498   0.178860718751  T T T
  0.621717769514   0.373355682807   0.180076950586  T T T
  0.625275604428   0.624719457317   0.182387679006  T T T
  0.625250986328   0.876034505878   0.179728695742  T T T
  0.875113851608   0.124862484621   0.179759836974  T T T
  0.874784049940   0.374882259386   0.181053518282  T T T
  0.871208200563   0.624295912051   0.182107222819  T T T
  0.874616437868   0.874513989232   0.180541687091  T T T
  0.000000000000   0.125000000000   0.098587997000  F F F
  0.000000000000   0.375000000000   0.098587997000  F F F
  0.000000000000   0.625000000000   0.098587997000  F F F
  0.000000000000   0.874998987000   0.098587997000  F F F
  0.250000000000   0.125000000000   0.098587997000  F F F
  0.250000000000   0.375000000000   0.098587997000  F F F
  0.250000000000   0.625000000000   0.098587997000  F F F
  0.250000000000   0.874998987000   0.098587997000  F F F
  0.500000000000   0.125000000000   0.098587997000  F F F
  0.500000000000   0.375000000000   0.098587997000  F F F
  0.500000000000   0.625000000000   0.098587997000  F F F
  0.500000000000   0.874998987000   0.098587997000  F F F
  0.749998987000   0.125000000000   0.098587997000  F F F
  0.749998987000   0.375000000000   0.098587997000  F F F
  0.749998987000   0.625000000000   0.098587997000  F F F
  0.749998987000   0.874998987000   0.098587997000  F F F
  0.124881174943   0.007797998728   0.261423878091  T T T
  0.125086163837   0.248230740335   0.261918793820  T T T
  0.127839213573   0.495001536352   0.266008614459  T T T
  0.126846043285   0.757275172376   0.264681039257  T T T
  0.375204536860   0.010384887536   0.260567242776  T T T
  0.374748819542   0.236489725875   0.259905096936  T T T
  0.373201560761   0.492730961594   0.266063751383  T T T
  0.378735663600   0.785372441527   0.260446529471  T T T
  0.625291750847   0.012037095305   0.260273066172  T T T
  0.624084408912   0.240429017972   0.260405314052  T T T
  0.621516421039   0.477831232063   0.262514075695  T T T
  0.624148179273   0.778027312950   0.262028900316  T T T
  0.875177250005   0.009166696432   0.261249009473  T T T
  0.873647548486   0.249435514166   0.262012984742  T T T
  0.868611212235   0.495585668093   0.266489144365  T T T
  0.875167256405   0.761861594749   0.263820479386  T T T
  0.124926464393  -0.000945725142   0.125510105552  T T T
  0.124850329733   0.250219071788   0.125599019793  T T T
  0.124364827945   0.500168962207   0.127499826817  T T T
  0.125452212688   0.748779151647   0.127266661581  T T T
  0.375017546657   0.000100363550   0.124430293674  T T T
  0.374236710553   0.250469855570   0.124612031056  T T T
  0.374388420532   0.500891438335   0.126674570014  T T T
  0.375160109597   0.750028627490   0.126317887791  T T T
  0.624923445487   0.999555665452   0.124519986257  T T T
  0.625797794861   0.250004749581   0.124508924447  T T T
  0.624685843895   0.500370369350   0.126577783813  T T T
  0.625487928304   0.749303233676   0.126673627123  T T T
  0.875393884142   0.999470471106   0.125341440442  T T T
  0.875115643694   0.250618500373   0.125642307818  T T T
  0.874887763340   0.500397263873   0.127692437498  T T T
  0.875257185527   0.748988551902   0.127008202540  T T T
 -0.000511924563   0.129406809033   0.293903081669  T T T
 -0.001109767541   0.375492230559   0.293028690037  T T T
  0.998769192035   0.627362612280   0.290941760285  T T T
  0.000259150977   0.882678653194   0.292251579800  T T T
  0.248557902038   0.122705257230   0.298583743031  T T T
  0.255784429655   0.346310799553   0.303074873437  T T T
  0.282918239553   0.688236088524   0.315831740636  T T T
  0.250026721440   0.894702053754   0.299184621690  T T T
  0.500423037757   0.123944105944   0.300392124845  T T T
  0.496042891773   0.343858936179   0.298499351018  T T T
  0.501950028746   0.905761688518   0.302756764792  T T T
  0.750703361856   0.126180670503   0.298411956589  T T T
  0.744690554712   0.350464907221   0.303557094348  T T T
  0.739597579167   0.706566150904   0.324132480867  T T T
  0.750597439160   0.899965168570   0.299759480216  T T T
  0.125000000000   0.125000000000   0.043614000000  F F F
  0.125000000000   0.375000000000   0.043614000000  F F F
  0.125000000000   0.625000000000   0.043614000000  F F F
  0.125000000000   0.874998987000   0.043614000000  F F F
  0.375000000000   0.125000000000   0.043614000000  F F F
  0.375000000000   0.375000000000   0.043614000000  F F F
  0.375000000000   0.625000000000   0.043614000000  F F F
  0.375000000000   0.874998987000   0.043614000000  F F F
  0.625000000000   0.125000000000   0.043614000000  F F F
  0.625000000000   0.375000000000   0.043614000000  F F F
  0.625000000000   0.625000000000   0.043614000000  F F F
  0.625000000000   0.874998987000   0.043614000000  F F F
  0.874998987000   0.125000000000   0.043614000000  F F F
  0.874998987000   0.375000000000   0.043614000000  F F F
  0.874998987000   0.625000000000   0.043614000000  F F F
  0.874998987000   0.874998987000   0.043614000000  F F F
  0.000107086808   0.995084920817   0.207391265735  T T T
 -0.000652944922   0.245740833008   0.208084418368  T T T
  0.998464655620   0.497377007917   0.210978355250  T T T
  0.000784881222   0.743577901897   0.209295583088  T T T
  0.249785523583  -0.001146332405   0.207594553949  T T T
  0.249008876513   0.247287549681   0.207375329492  T T T
  0.250445431424   0.491318400666   0.208288007147  T T T
  0.252162067865   0.750522663844   0.210571509852  T T T
  0.500021660107   0.001016458436   0.206788077422  T T T
  0.499588640748   0.242403956062   0.205414069727  T T T
  0.497521168875   0.497827232739   0.208763640998  T T T
  0.501008449689   0.752077396771   0.208596542247  T T T
  0.750460253494   0.000138373903   0.207159104418  T T T
  0.749743326055   0.247574638011   0.207600291890  T T T
  0.747147562366   0.493000786855   0.209308842328  T T T
  0.749601070749   0.752243741304   0.210328740061  T T T
  0.310330488620   0.820319857077   0.400977948468  T T T
  0.226596604511   0.811544458183   0.397336889730  T T T
  0.000204025230   0.996071997542   0.274653426706  T T T
 -0.000463856970   0.242955700148   0.275114914970  T T T
  0.998178305269   0.491849119162   0.276328375366  T T T
  0.000759251295   0.744104627277   0.275092730468  T T T
  0.249675302982   0.006500147963   0.274714451249  T T T
  0.249493990701   0.235152704022   0.274782276675  T T T
  0.247591465750   0.455281970511   0.274979953427  T T T
  0.252695528891   0.777253152386   0.278363282889  T T T
  0.500098626201   0.012665026673   0.273689622881  T T T
  0.499259554588   0.230756758738   0.271433088712  T T T
  0.496484497732   0.457055686168   0.273090234858  T T T
  0.500790467318   0.798037977560   0.274318943924  T T T
  0.750571865774   0.011314162772   0.273816387212  T T T
  0.749483605147   0.238465710054   0.274673864203  T T T
  0.747033427831   0.459279205034   0.276489265559  T T T
  0.751177729186   0.785228209060   0.277909481460  T T T
  0.124986343435   0.124431281342   0.111743890378  T T T
  0.124800258792   0.375353385275   0.112199214814  T T T
  0.124953073728   0.624869325747   0.112401161957  T T T
  0.124953601461   0.873565182303   0.112173907109  T T T
  0.374881545415   0.124429715911   0.111052183747  T T T
  0.375063791091   0.375082047210   0.111829397002  T T T
  0.374867179197   0.626639561472   0.111955963319  T T T
  0.374950166369   0.875198870790   0.111368767219  T T T
  0.625090041484   0.124336253540   0.111071152304  T T T
  0.624991004161   0.375047241718   0.111649947076  T T T
  0.625172169517   0.625398661807   0.112132931431  T T T
  0.625024492490   0.874314327361   0.111635866923  T T T
  0.875052431205   0.124884313460   0.111690446217  T T T
  0.875121363441   0.375734600609   0.112181069908  T T T
  0.874982197871   0.624874113789   0.112407130127  T T T
  0.875054261697   0.873903336953   0.112054007055  T T T
  0.000000000000   0.125000000000   0.030159000000  F F F
  0.000000000000   0.375000000000   0.030159000000  F F F
  0.000000000000   0.625000000000   0.030159000000  F F F
  0.000000000000   0.874998987000   0.030159000000  F F F
  0.250000000000   0.125000000000   0.030159000000  F F F
  0.250000000000   0.375000000000   0.030159000000  F F F
  0.250000000000   0.625000000000   0.030159000000  F F F
  0.250000000000   0.874998987000   0.030159000000  F F F
  0.500000000000   0.125000000000   0.030159000000  F F F
  0.500000000000   0.375000000000   0.030159000000  F F F
  0.500000000000   0.625000000000   0.030159000000  F F F
  0.500000000000   0.874998987000   0.030159000000  F F F
  0.749998987000   0.125000000000   0.030159000000  F F F
  0.749998987000   0.375000000000   0.030159000000  F F F
  0.749998987000   0.625000000000   0.030159000000  F F F
  0.749998987000   0.874998987000   0.030159000000  F F F
  0.124620665290  -0.000347088595   0.193713845683  T T T
  0.123804750922   0.249748058596   0.193720217296  T T T
  0.126007326645   0.500369996425   0.195990006605  T T T
  0.128465590737   0.749617594607   0.196376732669  T T T
  0.374209195209   0.000598470385   0.192922211351  T T T
  0.373038739653   0.249237241280   0.192324252698  T T T
  0.373239335542   0.502061369043   0.193598496650  T T T
  0.376804003387   0.752389217732   0.194990219774  T T T
  0.625524114515   0.000166933557   0.192662806068  T T T
  0.625540297910   0.249079151890   0.192249226624  T T T
  0.623250922614   0.500068229268   0.194381451317  T T T
  0.625294508919   0.750576313388   0.195254626731  T T T
  0.875986437860   0.000103397210   0.193423075332  T T T
  0.875236938034   0.250208426170   0.193720933535  T T T
  0.870903073347   0.500608719430   0.196322487854  T T T
  0.873185982973   0.750012909012   0.195933600248  T T T
