Cu
1.0
 21.000000000000   0.000000000000   0.000000000000
  0.000000000000  21.000000000000   0.000000000000
  0.000000000000   0.000000000000  21.000000000000
Cu
 13
Selective dynamics
Direct
  0.418504468700   0.418504468700   0.500000000000  T T T
  0.418504468700   0.500000000000   0.418504468700  T T T
  0.418504468700   0.500000000000   0.581495531300  T T T
  0.418504468700   0.581495531300   0.500000000000  T T T
  0.500000000000   0.418504468700   0.418504468700  T T T
  0.500000000000   0.418504468700   0.581495531300  T T T
  0.581495531300   0.418504468700   0.500000000000  T T T
  0.500000000000   0.581495531300   0.418504468700  T T T
  0.581495531300   0.500000000000   0.418504468700  T T T
  0.500000000000   0.500000000000   0.500000000000  F F F
  0.500000000000   0.581495531300   0.581495531300  T T T
  0.581495531300   0.500000000000   0.581495531300  T T T
  0.581495531300   0.581495531300   0.500000000000  T T T
