Au C Cu O Ti                            
   1.00000000000000     
    15.2137002945000006    0.0000000000000000    0.0000000000000000
     0.0000000000000000   15.2137002945000006    0.0000000000000000
     0.0000000000000000    0.0000000000000000   29.0000000000000000
   Au   C    Cu   O    Ti
     3     1    10   130    64
Selective dynamics
Direct
  0.4974210802195485  0.1961177479254741  0.4395739575896418   T   T   T
  0.3736997364662833  0.3289507935245826  0.4613753609936260   T   T   T
  0.5243105133694945  0.5434295263317140  0.4569156270456864   T   T   T
  0.4243932573326860  0.7287410270869286  0.4311413177886281   T   T   T
  0.5007805373154309  0.4041300194176861  0.3387579218507182   T   T   T
  0.4238209464460104  0.2904732874821899  0.3804642729263150   T   T   T
  0.5063369048620237  0.1604853737165696  0.3556220004523054   T   T   T
  0.3405611078779684  0.4042642654339486  0.3469709723722542   T   T   T
  0.6631671430142250  0.3832954778820185  0.3358450876590898   T   T   T
  0.4974563558236978  0.5636910900176336  0.3602025259144874   T   T   T
  0.4299744886880182  0.4497717345785556  0.4083275826679491   T   T   T
  0.5319444584526639  0.3658097138035917  0.4558347934824770   T   T   T
  0.5810366706232176  0.2927622420211141  0.3841421501749679   T   T   T
  0.5948404815855610  0.4552128946056028  0.3965925069493036   T   T   T
  0.0000000000000000  0.0000000000000000  0.0167050009999983   F   F   F
  0.0000000000000000  0.2500000000000000  0.0167050009999983   F   F   F
  0.0000000000000000  0.5000000000000000  0.0167050009999983   F   F   F
  0.0000000000000000  0.7499989869999979  0.0167050009999983   F   F   F
  0.2500000000000000  0.0000000000000000  0.0167050009999983   F   F   F
  0.2500000000000000  0.2500000000000000  0.0167050009999983   F   F   F
  0.2500000000000000  0.5000000000000000  0.0167050009999983   F   F   F
  0.2500000000000000  0.7499989869999979  0.0167050009999983   F   F   F
  0.5000000000000000  0.0000000000000000  0.0167050009999983   F   F   F
  0.5000000000000000  0.2500000000000000  0.0167050009999983   F   F   F
  0.5000000000000000  0.5000000000000000  0.0167050009999983   F   F   F
  0.5000000000000000  0.7499989869999979  0.0167050009999983   F   F   F
  0.7499989869999979  0.0000000000000000  0.0167050009999983   F   F   F
  0.7499989869999979  0.2500000000000000  0.0167050009999983   F   F   F
  0.7499989869999979  0.5000000000000000  0.0167050009999983   F   F   F
  0.7499989869999979  0.7499989869999979  0.0167050009999983   F   F   F
  0.1207704987289120  0.1239256070630591  0.1805637489618732   T   T   T
  0.1311376723797865  0.3739544894940004  0.1814124437344786   T   T   T
  0.1261533369973361  0.6253006865360776  0.1801457995074715   T   T   T
  0.1233171697879079  0.8746075993552942  0.1797984918027054   T   T   T
  0.3782275462357249  0.1233326010634784  0.1804230614025640   T   T   T
  0.3709015070232570  0.3741713948455615  0.1817400574181467   T   T   T
  0.3723730369205607  0.6261478593300391  0.1799671369426625   T   T   T
  0.3769645148987548  0.8743540743952795  0.1798216428741620   T   T   T
  0.6235716193889503  0.1244452515082097  0.1808244016654820   T   T   T
  0.6245278629092481  0.3743449607403460  0.1814684902811624   T   T   T
  0.6254247966644597  0.6257384584166005  0.1799463262409891   T   T   T
  0.6239076396801807  0.8745924984084790  0.1802928826917417   T   T   T
  0.8763219190137453  0.1251360048447603  0.1810226687856242   T   T   T
  0.8720431485931058  0.3741609308057497  0.1811015127749733   T   T   T
  0.8753867396504120  0.6247235307143526  0.1803808128687216   T   T   T
  0.8751364379382852  0.8747819017699349  0.1802756615154915   T   T   T
  0.0000000000000000  0.1250000000000000  0.0985879970000028   F   F   F
  0.0000000000000000  0.3750000000000000  0.0985879970000028   F   F   F
  0.0000000000000000  0.6250000000000000  0.0985879970000028   F   F   F
  0.0000000000000000  0.8749989869999979  0.0985879970000028   F   F   F
  0.2500000000000000  0.1250000000000000  0.0985879970000028   F   F   F
  0.2500000000000000  0.3750000000000000  0.0985879970000028   F   F   F
  0.2500000000000000  0.6250000000000000  0.0985879970000028   F   F   F
  0.2500000000000000  0.8749989869999979  0.0985879970000028   F   F   F
  0.5000000000000000  0.1250000000000000  0.0985879970000028   F   F   F
  0.5000000000000000  0.3750000000000000  0.0985879970000028   F   F   F
  0.5000000000000000  0.6250000000000000  0.0985879970000028   F   F   F
  0.5000000000000000  0.8749989869999979  0.0985879970000028   F   F   F
  0.7499989869999979  0.1250000000000000  0.0985879970000028   F   F   F
  0.7499989869999979  0.3750000000000000  0.0985879970000028   F   F   F
  0.7499989869999979  0.6250000000000000  0.0985879970000028   F   F   F
  0.7499989869999979  0.8749989869999979  0.0985879970000028   F   F   F
  0.1254057753018618  0.0011032948413185  0.2619204131092710   T   T   T
  0.1325778111252358  0.2564702073147570  0.2653441542603640   T   T   T
  0.1238701962216975  0.5182695797418618  0.2618649755732138   T   T   T
  0.1244905689131436  0.7594372456050595  0.2617341225037355   T   T   T
  0.3744968214877002  0.9942688318382654  0.2615119378169019   T   T   T
  0.3692660206906179  0.2528551713121540  0.2651566590248035   T   T   T
  0.3755058329008230  0.5232329950097059  0.2621169281997313   T   T   T
  0.3755005625074933  0.7564668373005915  0.2624794194870887   T   T   T
  0.6253305650976716 -0.0008898640212719  0.2624667307070210   T   T   T
  0.6225073550882357  0.2495257468663341  0.2643479376372354   T   T   T
  0.6239176027674889  0.5155076486281072  0.2615611983104849   T   T   T
  0.6246690910991002  0.7539077558960365  0.2629306676420878   T   T   T
  0.8748916357534402  0.0055613622788863  0.2629644624699217   T   T   T
  0.8745581458692768  0.2550662283316564  0.2643196366734629   T   T   T
  0.8755149741216770  0.5078259715000344  0.2627790721902498   T   T   T
  0.8748364661684572  0.7572842899305201  0.2621703226186110   T   T   T
  0.1252891150204522  0.9999847204897422  0.1254279871189605   T   T   T
  0.1246975928422216  0.2501449988949932  0.1266747217790903   T   T   T
  0.1246320697390425  0.4995100180536405  0.1263147531884432   T   T   T
  0.1250441795975739  0.7497212948691122  0.1254459569294293   T   T   T
  0.3746565171257448  0.9995831059908317  0.1252512457792323   T   T   T
  0.3747860163676131  0.2500031522481411  0.1264658722363616   T   T   T
  0.3743496725319334  0.4996180814135990  0.1263412519272747   T   T   T
  0.3754363165482506  0.7498291253818561  0.1255222815715579   T   T   T
  0.6254673314111298  0.0000232033711710  0.1259154492943836   T   T   T
  0.6249864530593150  0.2497972454589329  0.1268248229439256   T   T   T
  0.6254246166843522  0.4995223183609775  0.1258335441165236   T   T   T
  0.6249361812741299  0.7501328457253088  0.1257775310456555   T   T   T
  0.8750261947232132  0.0003972716496634  0.1261601300417795   T   T   T
  0.8755203393745761  0.2499914634074031  0.1269755782755182   T   T   T
  0.8755780944427863  0.4994360779320169  0.1261719432919903   T   T   T
  0.8747674538199949  0.7498868174934866  0.1257968625325453   T   T   T
  0.0031594483042616  0.1331109164494791  0.2927498297835823   T   T   T
  0.0033697526355141  0.3819747253543663  0.2919978059232301   T   T   T
  0.9988469385763473  0.6334958118901289  0.2929866066062000   T   T   T
  0.9992763829414659  0.8819666775486122  0.2936862393236064   T   T   T
  0.2511018487977471  0.1098921255275741  0.2949350147359761   T   T   T
  0.2445782314614917  0.4488443613606368  0.3196561423651474   T   T   T
  0.2484961599345038  0.6498101925400271  0.3008638003861848   T   T   T
  0.2491739479368179  0.8773708792692928  0.2975297453369409   T   T   T
  0.4977728014569905  0.1106538221944167  0.2984373195425525   T   T   T
  0.4982245904065238  0.3827723380012723  0.2750597227400441   T   T   T
  0.5009449470799303  0.8755707412543683  0.2960951196603348   T   T   T
  0.7492512595314726  0.1260038899012165  0.2924771110170179   T   T   T
  0.7486635069082589  0.3865970550870634  0.2922202176770784   T   T   T
  0.7512103654149387  0.6327992262619949  0.2933549348725522   T   T   T
  0.7505725083700631  0.8781104644311364  0.2930028147388588   T   T   T
  0.1250000000000000  0.1250000000000000  0.0436139999999980   F   F   F
  0.1250000000000000  0.3750000000000000  0.0436139999999980   F   F   F
  0.1250000000000000  0.6250000000000000  0.0436139999999980   F   F   F
  0.1250000000000000  0.8749989869999979  0.0436139999999980   F   F   F
  0.3750000000000000  0.1250000000000000  0.0436139999999980   F   F   F
  0.3750000000000000  0.3750000000000000  0.0436139999999980   F   F   F
  0.3750000000000000  0.6250000000000000  0.0436139999999980   F   F   F
  0.3750000000000000  0.8749989869999979  0.0436139999999980   F   F   F
  0.6250000000000000  0.1250000000000000  0.0436139999999980   F   F   F
  0.6250000000000000  0.3750000000000000  0.0436139999999980   F   F   F
  0.6250000000000000  0.6250000000000000  0.0436139999999980   F   F   F
  0.6250000000000000  0.8749989869999979  0.0436139999999980   F   F   F
  0.8749989869999979  0.1250000000000000  0.0436139999999980   F   F   F
  0.8749989869999979  0.3750000000000000  0.0436139999999980   F   F   F
  0.8749989869999979  0.6250000000000000  0.0436139999999980   F   F   F
  0.8749989869999979  0.8749989869999979  0.0436139999999980   F   F   F
  0.9994649176585170  0.9948685805313128  0.2083708484699428   T   T   T
  0.0017677797005554  0.2488939087854023  0.2098948449526354   T   T   T
  0.0006254161832662  0.4930831211795005  0.2079625662280701   T   T   T
  0.9998365809469671  0.7454028924717923  0.2077690608505055   T   T   T
  0.2496883314153635  0.9946785964029153  0.2068584520483182   T   T   T
  0.2500395409784945  0.2290235872213537  0.2069921437765540   T   T   T
  0.2502180148049839  0.5013470996964010  0.2099067429448733   T   T   T
  0.2502155258334162  0.7516030506506081  0.2080445721003470   T   T   T
  0.5003636209273024  0.9985300328701942  0.2082543254720372   T   T   T
  0.4975950809598956  0.2475887960177769  0.2091501694431589   T   T   T
  0.4989361756849280  0.5057706626880443  0.2055782550627086   T   T   T
  0.5000280139329664  0.7490437403842066  0.2095397605608444   T   T   T
  0.7502319088757931  0.9962411369298847  0.2080893446380483   T   T   T
  0.7490281060562046  0.2433580945318130  0.2094095691910896   T   T   T
  0.7498418166459402  0.5018512017674839  0.2082159481475264   T   T   T
  0.7496099352163913  0.7489599690693434  0.2082518622078513   T   T   T
  0.4320199332436743  0.7324330814988076  0.3908052667827361   T   T   T
  0.5007922120914503  0.6376591652991460  0.3024131164117846   T   T   T
  0.4162944578547348  0.7261716767864769  0.4714103724910630   T   T   T
  0.0000313414398507  0.9949582518057128  0.2751182481879599   T   T   T
  0.0017236440854529  0.2479759345255261  0.2759673912778096   T   T   T
  0.0012953085946350  0.4974265338568608  0.2743543680031308   T   T   T
 -0.0001268238515745  0.7465143877687875  0.2746824448606342   T   T   T
  0.2498528921898612  0.9886137950130887  0.2729436030327008   T   T   T
  0.2501328321453309  0.2176057864842951  0.2716602165644165   T   T   T
  0.2484444303002026  0.5332418816080561  0.2785891025668010   T   T   T
  0.2495521026026580  0.7597925019705909  0.2747867471562986   T   T   T
  0.4999510119495184  0.9959095328444706  0.2751957006506173   T   T   T
  0.4976995504657881  0.2629647226528551  0.2764506124263532   T   T   T
  0.4995015283438233  0.5229471463842439  0.2738112825239885   T   T   T
  0.4997813230841071  0.7588437161078351  0.2764777699385344   T   T   T
  0.7501562606345714  0.9942407744767829  0.2742068326759521   T   T   T
  0.7495555391402322  0.2401244793884937  0.2752766169242570   T   T   T
  0.7504616515735041  0.5105099112956454  0.2740262023545042   T   T   T
  0.7501863168655452  0.7516103919134463  0.2743537216632143   T   T   T
  0.1247485002070279  0.1242890987842183  0.1118211506609495   T   T   T
  0.1251579797096395  0.3758944173657289  0.1118785594961793   T   T   T
  0.1249789050683924  0.6246172802138736  0.1118017343191927   T   T   T
  0.1249657152406219  0.8742776066032482  0.1115312233852428   T   T   T
  0.3751237249493017  0.1238486845028597  0.1116729036118121   T   T   T
  0.3748305534124144  0.3759547854613333  0.1119536993525693   T   T   T
  0.3748711975163691  0.6248477630290157  0.1117762138990827   T   T   T
  0.3750016724837628  0.8741213120460047  0.1114315484834466   T   T   T
  0.6250493873269548  0.1247325518811470  0.1118772454479336   T   T   T
  0.6250908057125374  0.3747607912266401  0.1120247879235108   T   T   T
  0.6250596901800664  0.6249867061692725  0.1117506657177286   T   T   T
  0.6249985275195641  0.8747506523184087  0.1117027986036878   T   T   T
  0.8750695108972437  0.1252514200954444  0.1120366370402969   T   T   T
  0.8748376974940075  0.3746903814041831  0.1119854250402296   T   T   T
  0.8750244648057969  0.6246988950638214  0.1118751151270818   T   T   T
  0.8749801044891867  0.8748480687988444  0.1118429128657128   T   T   T
  0.0000000000000000  0.1250000000000000  0.0301589999999976   F   F   F
  0.0000000000000000  0.3750000000000000  0.0301589999999976   F   F   F
  0.0000000000000000  0.6250000000000000  0.0301589999999976   F   F   F
  0.0000000000000000  0.8749989869999979  0.0301589999999976   F   F   F
  0.2500000000000000  0.1250000000000000  0.0301589999999976   F   F   F
  0.2500000000000000  0.3750000000000000  0.0301589999999976   F   F   F
  0.2500000000000000  0.6250000000000000  0.0301589999999976   F   F   F
  0.2500000000000000  0.8749989869999979  0.0301589999999976   F   F   F
  0.5000000000000000  0.1250000000000000  0.0301589999999976   F   F   F
  0.5000000000000000  0.3750000000000000  0.0301589999999976   F   F   F
  0.5000000000000000  0.6250000000000000  0.0301589999999976   F   F   F
  0.5000000000000000  0.8749989869999979  0.0301589999999976   F   F   F
  0.7499989869999979  0.1250000000000000  0.0301589999999976   F   F   F
  0.7499989869999979  0.3750000000000000  0.0301589999999976   F   F   F
  0.7499989869999979  0.6250000000000000  0.0301589999999976   F   F   F
  0.7499989869999979  0.8749989869999979  0.0301589999999976   F   F   F
  0.1235405243466951  0.9995506732236417  0.1934049829663775   T   T   T
  0.1251220345019032  0.2504760345199282  0.1936589917017316   T   T   T
  0.1280920427411929  0.5008093998918577  0.1950201222669777   T   T   T
  0.1246699276580241  0.7502801031782260  0.1937485004080868   T   T   T
  0.3761609866881405  0.9987723599383305  0.1932889408684483   T   T   T
  0.3757215216851179  0.2494466469103464  0.1932251203052267   T   T   T
  0.3730031818048107  0.5008045825710762  0.1948560389033039   T   T   T
  0.3753659750733607  0.7498454507803869  0.1939315795478534   T   T   T
  0.6246482235619938  0.9994241406542711  0.1939856924852177   T   T   T
  0.6228175414964039  0.2491721213803043  0.1948719562672093   T   T   T
  0.6229249265109769  0.5001911211500277  0.1937938828533793   T   T   T
  0.6243274449331732  0.7497306921351213  0.1940233613025543   T   T   T
  0.8754190810331098  0.0002855459583004  0.1941062029396508   T   T   T
  0.8747891909163440  0.2504023511479416  0.1953085727370941   T   T   T
  0.8754854202378839  0.5000959137941868  0.1943075912762489   T   T   T
  0.8753704132881891  0.7502040130666516  0.1938952377288394   T   T   T
