%chk=5d-AuCu.chk
%nprocshared=16
%mem=6GB
# opt freq=noraman pbepbe/gen empiricaldispersion=gd3bj pseudo=read
scf=(maxcycles=1000)

5d-AuCu

0 2
 Au                 0.44203800   -0.36421800    2.39993800
 Au                 0.29230900    3.10709800    0.14587300
 Au                 3.26567800   -1.06700200   -0.57276000
 Cu                -3.25348300    0.06226600   -0.03982200
 Cu                -0.92973400    0.89268800    0.60505400
 Cu                -1.36970500   -1.54284300    1.00379600
 Cu                -2.27327700    2.14322800   -0.90994200
 Cu                -0.75775100   -2.76607900   -1.14416500
 Cu                -1.44663600   -0.38831000   -1.59136500
 Cu                 0.08141600    1.43842500   -1.83005900
 Cu                 1.52298100    0.70615200    0.12197000
 Cu                 1.03852600   -1.91348500    0.36231100
 Cu                 0.95426700   -0.87449400   -1.86925700
 O                 -5.07885100   -1.22256600    0.30995100
 O                 -2.46064200   -1.89598500   -0.54034500
 O                 -4.93349900   -3.52123000   -0.12602100
 C                 -4.94159700   -2.37416200    0.07219700

Au Cu 0
LANL2DZ
****
O C 0
def2tzvp
****

Au Cu 0
LANL2DZ



