C Cu O Ti
1.0
 15.213700294500   0.000000000000   0.000000000000
  0.000000000000  15.213700294500   0.000000000000
  0.000000000000   0.000000000000  29.000000000000
C Cu O Ti
  1  13 130  64
Selective dynamics
Direct
  0.295263719912   0.663869163197   0.415662290993  T T T
  0.375647931867   0.600719241724   0.308710589351  T T T
  0.373506538300   0.756305653773   0.343791128110  T T T
  0.512001937156   0.683306935401   0.331025546557  T T T
  0.512287774323   0.537049587461   0.347367671547  T T T
  0.500799536684   0.780231715289   0.392390649047  T T T
  0.571619153413   0.630083732103   0.405360433042  T T T
  0.643381835599   0.750309289032   0.362874196782  T T T
  0.373853835411   0.476074230832   0.367356021297  T T T
  0.413122806885   0.630255530056   0.393047953231  T T T
  0.503980460392   0.383824575173   0.363110655310  T T T
  0.492214662389   0.492098303651   0.423199201815  T T T
  0.634118442185   0.475722366628   0.385150898159  T T T
  0.662809744128   0.594586909578   0.331678002828  T T T
  0.000000000000   0.000000000000   0.016705001000  F F F
  0.000000000000   0.250000000000   0.016705001000  F F F
  0.000000000000   0.500000000000   0.016705001000  F F F
  0.000000000000   0.749998987000   0.016705001000  F F F
  0.250000000000   0.000000000000   0.016705001000  F F F
  0.250000000000   0.250000000000   0.016705001000  F F F
  0.250000000000   0.500000000000   0.016705001000  F F F
  0.250000000000   0.749998987000   0.016705001000  F F F
  0.500000000000   0.000000000000   0.016705001000  F F F
  0.500000000000   0.250000000000   0.016705001000  F F F
  0.500000000000   0.500000000000   0.016705001000  F F F
  0.500000000000   0.749998987000   0.016705001000  F F F
  0.749998987000   0.000000000000   0.016705001000  F F F
  0.749998987000   0.250000000000   0.016705001000  F F F
  0.749998987000   0.500000000000   0.016705001000  F F F
  0.749998987000   0.749998987000   0.016705001000  F F F
  0.124963867753   0.124590857112   0.179886433053  T T T
  0.124214697497   0.374778182603   0.181055154254  T T T
  0.126995662476   0.624220004655   0.181990810299  T T T
  0.123448843466   0.874126311969   0.180614388766  T T T
  0.373004029366   0.124821659769   0.178940491646  T T T
  0.377068905635   0.374256474026   0.180747055578  T T T
  0.373876110152   0.626143935332   0.181774178857  T T T
  0.375218508992   0.877254245934   0.178469228700  T T T
  0.626529065037   0.124637154862   0.178653664570  T T T
  0.622239593638   0.373587757338   0.180226219205  T T T
  0.625101576048   0.625236150411   0.182305272914  T T T
  0.625347754621   0.875943439974   0.179956898992  T T T
  0.875957069220   0.124467105217   0.179461221308  T T T
  0.876165822533   0.374368089212   0.180890284401  T T T
  0.869906385402   0.624190970278   0.182194683209  T T T
  0.872917259096   0.874087934791   0.180666580478  T T T
  0.000000000000   0.125000000000   0.098587997000  F F F
  0.000000000000   0.375000000000   0.098587997000  F F F
  0.000000000000   0.625000000000   0.098587997000  F F F
  0.000000000000   0.874998987000   0.098587997000  F F F
  0.250000000000   0.125000000000   0.098587997000  F F F
  0.250000000000   0.375000000000   0.098587997000  F F F
  0.250000000000   0.625000000000   0.098587997000  F F F
  0.250000000000   0.874998987000   0.098587997000  F F F
  0.500000000000   0.125000000000   0.098587997000  F F F
  0.500000000000   0.375000000000   0.098587997000  F F F
  0.500000000000   0.625000000000   0.098587997000  F F F
  0.500000000000   0.874998987000   0.098587997000  F F F
  0.749998987000   0.125000000000   0.098587997000  F F F
  0.749998987000   0.375000000000   0.098587997000  F F F
  0.749998987000   0.625000000000   0.098587997000  F F F
  0.749998987000   0.874998987000   0.098587997000  F F F
  0.124745573307   0.007766031495   0.261244321392  T T T
  0.126035548383   0.248686972613   0.261725904181  T T T
  0.128601371490   0.495903250516   0.266455446908  T T T
  0.125123457721   0.759341417947   0.263267740101  T T T
  0.375030381346   0.011688455645   0.260190269993  T T T
  0.375459281583   0.240199380085   0.259968035051  T T T
  0.375547959237   0.490118640897   0.264707372794  T T T
  0.376968087591   0.791007312560   0.259496835390  T T T
  0.625504496886   0.012715564378   0.260331557139  T T T
  0.625158527900   0.239202882242   0.260128885839  T T T
  0.624433405278   0.483273316420   0.263595128270  T T T
  0.621117900708   0.777314381875   0.262555192359  T T T
  0.874776657181   0.008680798786   0.261436981202  T T T
  0.874711485822   0.247310303361   0.261658057726  T T T
  0.870096134083   0.495790300375   0.266270691432  T T T
  0.873018125895   0.759998371394   0.265039192521  T T T
  0.125452875287   0.999372325370   0.125399450311  T T T
  0.125305545305   0.250645116905   0.125631500358  T T T
  0.124750460427   0.500198157317   0.127471871636  T T T
  0.123885232152   0.748837908156   0.126603001985  T T T
  0.374590311541   0.000516202761   0.124118313506  T T T
  0.374224135339   0.250960511931   0.124688467148  T T T
  0.374968076080   0.500852289731   0.126398940914  T T T
  0.375384580504   0.750140785827   0.125665986774  T T T
  0.624880774476   0.999501937252   0.124428755511  T T T
  0.625553082682   0.250283125330   0.124373158905  T T T
  0.624921689988   0.500595961769   0.126552207331  T T T
  0.625138609195   0.749430369688   0.126970850297  T T T
  0.875531446519   0.998982165274   0.125240002110  T T T
  0.875202192725   0.250488692009   0.125285560832  T T T
  0.875606806319   0.500326496526   0.127562212067  T T T
  0.873987369123   0.748586025650   0.127412935663  T T T
  0.000359469409   0.128801389262   0.293761872138  T T T
  0.999641063452   0.374853858173   0.292822591310  T T T
  0.999209485994   0.627949552568   0.291002534069  T T T
 -0.001052884484   0.882653649283   0.292459349185  T T T
  0.249381585867   0.123854369450   0.298141109414  T T T
  0.256109868743   0.348661212381   0.302968655971  T T T
  0.283198898136   0.689010186210   0.312056048679  T T T
  0.249020376945   0.895642276080   0.299558327206  T T T
  0.500060702447   0.126145795966   0.300329167857  T T T
  0.500831912201   0.346255477200   0.298992908283  T T T
  0.500440139048   0.909098882390   0.302898986020  T T T
  0.751399599275   0.124716345566   0.298726073852  T T T
  0.746216863839   0.346825521537   0.303072776831  T T T
  0.734042059049   0.701235105495   0.324855236241  T T T
  0.749390377607   0.898031940294   0.299776492685  T T T
  0.125000000000   0.125000000000   0.043614000000  F F F
  0.125000000000   0.375000000000   0.043614000000  F F F
  0.125000000000   0.625000000000   0.043614000000  F F F
  0.125000000000   0.874998987000   0.043614000000  F F F
  0.375000000000   0.125000000000   0.043614000000  F F F
  0.375000000000   0.375000000000   0.043614000000  F F F
  0.375000000000   0.625000000000   0.043614000000  F F F
  0.375000000000   0.874998987000   0.043614000000  F F F
  0.625000000000   0.125000000000   0.043614000000  F F F
  0.625000000000   0.375000000000   0.043614000000  F F F
  0.625000000000   0.625000000000   0.043614000000  F F F
  0.625000000000   0.874998987000   0.043614000000  F F F
  0.874998987000   0.125000000000   0.043614000000  F F F
  0.874998987000   0.375000000000   0.043614000000  F F F
  0.874998987000   0.625000000000   0.043614000000  F F F
  0.874998987000   0.874998987000   0.043614000000  F F F
 -0.000446526970   0.995234679775   0.207444995549  T T T
  0.000101068101   0.245409589498   0.207990024817  T T T
  0.999486094383   0.496726826065   0.210938224268  T T T
 -0.002238864386   0.743599805977   0.209128919669  T T T
  0.249705775055   0.998360196629   0.207564623043  T T T
  0.249655730032   0.247204977228   0.207129791550  T T T
  0.251139428425   0.492306874207   0.208620659071  T T T
  0.250539740204   0.752887511533   0.209022582545  T T T
  0.500334543226   0.001485019741   0.206810105558  T T T
  0.500473776582   0.243296243718   0.205384216073  T T T
  0.499780995469   0.497756270155   0.209241422593  T T T
  0.499470782790   0.753355016464   0.208270814801  T T T
  0.750296482678   0.000687697577   0.207078595017  T T T
  0.750755292293   0.247825486159   0.207231190159  T T T
  0.748632939534   0.491384542656   0.208638187238  T T T
  0.747600440397   0.751743517758   0.211689009526  T T T
  0.360012097909   0.801185079540   0.406819862542  T T T
  0.283108036511   0.753574278373   0.422842909791  T T T
  0.239358000913   0.613196963651   0.427796447708  T T T
 -0.000364843738   0.996066696555   0.274572875874  T T T
 -0.000220008586   0.242329405711   0.274921027054  T T T
  0.999301651679   0.491056877092   0.276550773436  T T T
 -0.001646851376   0.744315920022   0.275237136000  T T T
  0.249905552494   0.007415994820   0.274543598603  T T T
  0.250328445784   0.236443959243   0.274694815369  T T T
  0.248804160263   0.457276207035   0.275617934803  T T T
  0.249314609161   0.780238032190   0.276032652717  T T T
  0.500330087708   0.014992907562   0.273523346590  T T T
  0.500585948620   0.233183214993   0.271544202364  T T T
  0.500738049079   0.460005918590   0.274507002986  T T T
  0.499165555768   0.802071075128   0.273323991026  T T T
  0.750384567589   0.010236958749   0.274083772972  T T T
  0.750497562346   0.236907817070   0.274491955492  T T T
  0.749367131765   0.456530847853   0.275843795623  T T T
  0.748574153705   0.782255187785   0.279390491179  T T T
  0.125130911082   0.124705184541   0.111770828285  T T T
  0.125014606123   0.375715528574   0.112158975337  T T T
  0.124794929690   0.624783532330   0.112212263998  T T T
  0.124685978297   0.874013332116   0.111979128798  T T T
  0.374872860418   0.124960568827   0.111070589417  T T T
  0.375053956081   0.375299423091   0.111763808397  T T T
  0.374817345499   0.626049655175   0.111630321756  T T T
  0.374996188605   0.876127188689   0.111010305284  T T T
  0.624904682663   0.124486296612   0.111011520695  T T T
  0.624836296522   0.375246873505   0.111782500280  T T T
  0.625122042375   0.625896683674   0.112166190114  T T T
  0.625026498551   0.874113367666   0.111644076812  T T T
  0.875155739476   0.124832020022   0.111523539653  T T T
  0.875118263459   0.375432313897   0.112188328600  T T T
  0.874890903573   0.624760104865   0.112524310117  T T T
  0.875004627142   0.873428990804   0.112059675406  T T T
  0.000000000000   0.125000000000   0.030159000000  F F F
  0.000000000000   0.375000000000   0.030159000000  F F F
  0.000000000000   0.625000000000   0.030159000000  F F F
  0.000000000000   0.874998987000   0.030159000000  F F F
  0.250000000000   0.125000000000   0.030159000000  F F F
  0.250000000000   0.375000000000   0.030159000000  F F F
  0.250000000000   0.625000000000   0.030159000000  F F F
  0.250000000000   0.874998987000   0.030159000000  F F F
  0.500000000000   0.125000000000   0.030159000000  F F F
  0.500000000000   0.375000000000   0.030159000000  F F F
  0.500000000000   0.625000000000   0.030159000000  F F F
  0.500000000000   0.874998987000   0.030159000000  F F F
  0.749998987000   0.125000000000   0.030159000000  F F F
  0.749998987000   0.375000000000   0.030159000000  F F F
  0.749998987000   0.625000000000   0.030159000000  F F F
  0.749998987000   0.874998987000   0.030159000000  F F F
  0.124346464537  -0.000011611459   0.193721586171  T T T
  0.124574539629   0.250068803673   0.193686561742  T T T
  0.126874976585   0.500278932405   0.196130012820  T T T
  0.125181963309   0.749607281726   0.195429109180  T T T
  0.374375921398   0.000837321621   0.192764492600  T T T
  0.373793742771   0.249599479227   0.192339921085  T T T
  0.374693230124   0.501381050406   0.193799327135  T T T
  0.375420733466   0.752618445605   0.193936490205  T T T
  0.625684433589   0.000611374372   0.192637659255  T T T
  0.626804689541   0.249182997275   0.192256771053  T T T
  0.624926762645   0.500595378878   0.194414007407  T T T
  0.623172967927   0.750781327335   0.195643346010  T T T
  0.875557912915  -0.000326839269   0.193387501428  T T T
  0.876003601271   0.249741550570   0.193509023186  T T T
  0.872402000459   0.500499116562   0.196210974558  T T T
  0.870513695683   0.749744580771   0.196528601834  T T T
