Ti O Au Cu                              
   1.00000000000000     
    15.2137002945000006    0.0000000000000000    0.0000000000000000
     0.0000000000000000   15.2137002945000006    0.0000000000000000
     0.0000000000000000    0.0000000000000000   29.0000000000000000
   Ti   O    Au   Cu
    64   127     3    10
Selective dynamics
Direct
  0.0012167920975373  0.9920586454403511  0.2742752278417926   T   T   T
  0.0043668228988985  0.2470752619742987  0.2746747204142674   T   T   T
  0.0018224193626504  0.4965341057648506  0.2756940299071265   T   T   T
  0.0004852551603775  0.7457297938211106  0.2750440780540974   T   T   T
  0.2512968950465297  0.9892975038189029  0.2724372421609331   T   T   T
  0.2504295468870717  0.2132031157686856  0.2694447999570758   T   T   T
  0.2494696196034319  0.5361756775607484  0.2810658520327008   T   T   T
  0.2525721966780362  0.7617325444709282  0.2742109229987266   T   T   T
  0.5016563402329879  0.0083041121289855  0.2739958774361920   T   T   T
  0.4995438336221424  0.2371664155109784  0.2731289242494280   T   T   T
  0.4974800729290245  0.4803484592389494  0.2789877102829815   T   T   T
  0.5020878544894539  0.7981545940780271  0.2717779743170906   T   T   T
  0.7515629832910022 -0.0030153120448228  0.2751693775120186   T   T   T
  0.7517243001334110  0.2454832137717277  0.2760848922380799   T   T   T
  0.7472560352674747  0.4979499734478388  0.2767962361172574   T   T   T
  0.7491782419808984  0.7466412622295708  0.2749188546338699   T   T   T
  0.1247371810999806  0.1226774599915883  0.1117883384787223   T   T   T
  0.1252090886881264  0.3761318299975873  0.1119767429158309   T   T   T
  0.1248949122158176  0.6234419061239447  0.1119547565367445   T   T   T
  0.1252140715935343  0.8724748487567647  0.1116399055592493   T   T   T
  0.3750670019495700  0.1231880538011574  0.1114734769237741   T   T   T
  0.3745476130071487  0.3755760674815315  0.1118885448407797   T   T   T
  0.3751620570583343  0.6244052856492651  0.1118908438769226   T   T   T
  0.3747110820225590  0.8734782095540363  0.1113145088854219   T   T   T
  0.6251171211532469  0.1250201567432126  0.1117030837387255   T   T   T
  0.6252495933968888  0.3756973864851662  0.1120469417970723   T   T   T
  0.6249281192434250  0.6245787697888292  0.1120321505444653   T   T   T
  0.6250212978730759  0.8748247312605424  0.1118239544641576   T   T   T
  0.8752071703225458  0.1249107522045834  0.1121326647787745   T   T   T
  0.8749491090833132  0.3752900220174017  0.1122751492150342   T   T   T
  0.8750976383386202  0.6238023796637571  0.1123220026325783   T   T   T
  0.8750651818136759  0.8736304406522463  0.1121248565530030   T   T   T
  0.0000000000000000  0.1250000000000000  0.0301589999999976   F   F   F
  0.0000000000000000  0.3750000000000000  0.0301589999999976   F   F   F
  0.0000000000000000  0.6250000000000000  0.0301589999999976   F   F   F
  0.0000000000000000  0.8749989869999979  0.0301589999999976   F   F   F
  0.2500000000000000  0.1250000000000000  0.0301589999999976   F   F   F
  0.2500000000000000  0.3750000000000000  0.0301589999999976   F   F   F
  0.2500000000000000  0.6250000000000000  0.0301589999999976   F   F   F
  0.2500000000000000  0.8749989869999979  0.0301589999999976   F   F   F
  0.5000000000000000  0.1250000000000000  0.0301589999999976   F   F   F
  0.5000000000000000  0.3750000000000000  0.0301589999999976   F   F   F
  0.5000000000000000  0.6250000000000000  0.0301589999999976   F   F   F
  0.5000000000000000  0.8749989869999979  0.0301589999999976   F   F   F
  0.7499989869999979  0.1250000000000000  0.0301589999999976   F   F   F
  0.7499989869999979  0.3750000000000000  0.0301589999999976   F   F   F
  0.7499989869999979  0.6250000000000000  0.0301589999999976   F   F   F
  0.7499989869999979  0.8749989869999979  0.0301589999999976   F   F   F
  0.1248356393700551 -0.0019479943009812  0.1929646559975257   T   T   T
  0.1264996937220681  0.2501480158717515  0.1923836228550195   T   T   T
  0.1304767893482853  0.4999736321542700  0.1965651578691112   T   T   T
  0.1259492274558115  0.7484913737712739  0.1944476457779789   T   T   T
  0.3768958704323185 -0.0017833914666410  0.1924559327235638   T   T   T
  0.3744858849166691  0.2491094392385892  0.1923327671584692   T   T   T
  0.3750944319563004  0.5003879876620170  0.1960871939999053   T   T   T
  0.3785411886530294  0.7488478207637402  0.1938704097238205   T   T   T
  0.6274136288281276  0.0000537522419861  0.1932957273308985   T   T   T
  0.6268984430576237  0.2497316961385367  0.1940142277084580   T   T   T
  0.6208882909528818  0.5001429508033961  0.1958469315365366   T   T   T
  0.6241951457403668  0.7496548121265412  0.1939258850209602   T   T   T
  0.8759447239733064 -0.0005459840552335  0.1939493487245877   T   T   T
  0.8764643310300145  0.2503868983315573  0.1951056947352207   T   T   T
  0.8751158424542965  0.4995441002141198  0.1964045691894478   T   T   T
  0.8752169440920325  0.7496735202518348  0.1948939506347065   T   T   T
  0.0000000000000000  0.0000000000000000  0.0167050009999983   F   F   F
  0.0000000000000000  0.2500000000000000  0.0167050009999983   F   F   F
  0.0000000000000000  0.5000000000000000  0.0167050009999983   F   F   F
  0.0000000000000000  0.7499989869999979  0.0167050009999983   F   F   F
  0.2500000000000000  0.0000000000000000  0.0167050009999983   F   F   F
  0.2500000000000000  0.2500000000000000  0.0167050009999983   F   F   F
  0.2500000000000000  0.5000000000000000  0.0167050009999983   F   F   F
  0.2500000000000000  0.7499989869999979  0.0167050009999983   F   F   F
  0.5000000000000000  0.0000000000000000  0.0167050009999983   F   F   F
  0.5000000000000000  0.2500000000000000  0.0167050009999983   F   F   F
  0.5000000000000000  0.5000000000000000  0.0167050009999983   F   F   F
  0.5000000000000000  0.7499989869999979  0.0167050009999983   F   F   F
  0.7499989869999979  0.0000000000000000  0.0167050009999983   F   F   F
  0.7499989869999979  0.2500000000000000  0.0167050009999983   F   F   F
  0.7499989869999979  0.5000000000000000  0.0167050009999983   F   F   F
  0.7499989869999979  0.7499989869999979  0.0167050009999983   F   F   F
  0.1201987476714242  0.1225287316667668  0.1804128061041740   T   T   T
  0.1351781748774875  0.3741560086624373  0.1816417777215703   T   T   T
  0.1267184691250031  0.6236557893961299  0.1807253799348070   T   T   T
  0.1270209960945156  0.8731088502935269  0.1801989948769060   T   T   T
  0.3793345554726611  0.1224604687009076  0.1798514649107448   T   T   T
  0.3674860192982324  0.3730201373995984  0.1820744098688640   T   T   T
  0.3805913784989666  0.6246005077230758  0.1809391492852482   T   T   T
  0.3740334267577902  0.8742599053498454  0.1796596275676252   T   T   T
  0.6266426073947358  0.1248141707362580  0.1801759602100592   T   T   T
  0.6261482800901129  0.3737846499532312  0.1814386520583014   T   T   T
  0.6210095730736815  0.6245603301188920  0.1814014158169597   T   T   T
  0.6283716773244413  0.8751828732136978  0.1801419616758379   T   T   T
  0.8789208053332161  0.1248274217860227  0.1811471160267859   T   T   T
  0.8740057315047525  0.3744629424147029  0.1813311123365462   T   T   T
  0.8745818432822745  0.6234675669179817  0.1814449735585260   T   T   T
  0.8745842106025118  0.8737013192905650  0.1805095129823761   T   T   T
  0.0000000000000000  0.1250000000000000  0.0985879970000028   F   F   F
  0.0000000000000000  0.3750000000000000  0.0985879970000028   F   F   F
  0.0000000000000000  0.6250000000000000  0.0985879970000028   F   F   F
  0.0000000000000000  0.8749989869999979  0.0985879970000028   F   F   F
  0.2500000000000000  0.1250000000000000  0.0985879970000028   F   F   F
  0.2500000000000000  0.3750000000000000  0.0985879970000028   F   F   F
  0.2500000000000000  0.6250000000000000  0.0985879970000028   F   F   F
  0.2500000000000000  0.8749989869999979  0.0985879970000028   F   F   F
  0.5000000000000000  0.1250000000000000  0.0985879970000028   F   F   F
  0.5000000000000000  0.3750000000000000  0.0985879970000028   F   F   F
  0.5000000000000000  0.6250000000000000  0.0985879970000028   F   F   F
  0.5000000000000000  0.8749989869999979  0.0985879970000028   F   F   F
  0.7499989869999979  0.1250000000000000  0.0985879970000028   F   F   F
  0.7499989869999979  0.3750000000000000  0.0985879970000028   F   F   F
  0.7499989869999979  0.6250000000000000  0.0985879970000028   F   F   F
  0.7499989869999979  0.8749989869999979  0.0985879970000028   F   F   F
  0.1266954047798366 -0.0008436677745367  0.2616157925432221   T   T   T
  0.1354995067334799  0.2575524044493753  0.2641972123754930   T   T   T
  0.1260695243619431  0.5167022922441733  0.2635296343375683   T   T   T
  0.1264672774253880  0.7579591424007029  0.2620552409691255   T   T   T
  0.3757000168398276 -0.0011719597364902  0.2604867801165497   T   T   T
  0.3680603080702431  0.2500833297944468  0.2635923190205783   T   T   T
  0.3803234592856385  0.5208491592796399  0.2657357629954481   T   T   T
  0.3800730212242657  0.7634897456741850  0.2626507475996400   T   T   T
  0.6266489016865028  0.0107130258905400  0.2617649412743522   T   T   T
  0.6235208383950043  0.2474075304566522  0.2630799537661787   T   T   T
  0.6186846479829805  0.5080245883935902  0.2653021383299399   T   T   T
  0.6219462928972186  0.7582924379425672  0.2639181780090264   T   T   T
  0.8765662978572777  0.0064954787466712  0.2631346993710721   T   T   T
  0.8776480907125677  0.2565011895382609  0.2633404914467143   T   T   T
  0.8745109392356051  0.5030113208763533  0.2646317398088904   T   T   T
  0.8748424517419883  0.7567177519628526  0.2630527163666804   T   T   T
  0.1258914611299007 -0.0013676058303890  0.1254392756390579   T   T   T
  0.1255866395286395  0.2494471051669341  0.1262137875335641   T   T   T
  0.1256121741812830  0.4990326896312099  0.1272514163046087   T   T   T
  0.1252573369120075  0.7484673113945957  0.1259255201041430   T   T   T
  0.3739810184934785 -0.0011907471742986  0.1246001110667810   T   T   T
  0.3746660114496963  0.2497699073953284  0.1259319915380321   T   T   T
  0.3742622829861355  0.4993353683527589  0.1276372180790802   T   T   T
  0.3740093319333692  0.7487946301293217  0.1255662400046438   T   T   T
  0.6251927961369288 -0.0000303517906118  0.1253745405432491   T   T   T
  0.6249032164687011  0.2501554830234316  0.1262864813957971   T   T   T
  0.6243421275532199  0.5001235462193742  0.1273373755414332   T   T   T
  0.6258721625758867  0.7496281909310334  0.1260655379686081   T   T   T
  0.8752963507375128 -0.0002095169386242  0.1262833793759565   T   T   T
  0.8757230150396231  0.2496772342755172  0.1268784146083558   T   T   T
  0.8756434265940318  0.4994211522635202  0.1273636920101129   T   T   T
  0.8753630216021634  0.7490600337792346  0.1264567712590167   T   T   T
  0.0067826318825592  0.1319889598971816  0.2896868331845258   T   T   T
  0.0063248221251991  0.3810035464175853  0.2924883314419844   T   T   T
  0.0001850754741861  0.6328044436115436  0.2940836194237560   T   T   T
  0.0008416770215760  0.8790930982928858  0.2932668427588180   T   T   T
  0.2500758811261635  0.1075630591751923  0.2960305126500226   T   T   T
  0.2439687765400711  0.4610206120558425  0.3270827506395994   T   T   T
  0.2537743869767765  0.6530127588514828  0.3015818581580080   T   T   T
  0.2516479466366882  0.8785988734519066  0.2971945872560494   T   T   T
  0.4931842312775753  0.1246312689095101  0.2954072746819490   T   T   T
  0.4930914634962261  0.3619413787241617  0.2875622396385479   T   T   T
  0.5035584851970737  0.9036362559393788  0.3052110847268031   T   T   T
  0.7535140556447916  0.1330456104240171  0.2948966150193300   T   T   T
  0.7426547242969600  0.3815176774852969  0.2952006775401264   T   T   T
  0.7485628468897861  0.6310276630958528  0.2927664214125018   T   T   T
  0.7492785446239115  0.8826727540499530  0.2927911675555928   T   T   T
  0.1250000000000000  0.1250000000000000  0.0436139999999980   F   F   F
  0.1250000000000000  0.3750000000000000  0.0436139999999980   F   F   F
  0.1250000000000000  0.6250000000000000  0.0436139999999980   F   F   F
  0.1250000000000000  0.8749989869999979  0.0436139999999980   F   F   F
  0.3750000000000000  0.1250000000000000  0.0436139999999980   F   F   F
  0.3750000000000000  0.3750000000000000  0.0436139999999980   F   F   F
  0.3750000000000000  0.6250000000000000  0.0436139999999980   F   F   F
  0.3750000000000000  0.8749989869999979  0.0436139999999980   F   F   F
  0.6250000000000000  0.1250000000000000  0.0436139999999980   F   F   F
  0.6250000000000000  0.3750000000000000  0.0436139999999980   F   F   F
  0.6250000000000000  0.6250000000000000  0.0436139999999980   F   F   F
  0.6250000000000000  0.8749989869999979  0.0436139999999980   F   F   F
  0.8749989869999979  0.1250000000000000  0.0436139999999980   F   F   F
  0.8749989869999979  0.3750000000000000  0.0436139999999980   F   F   F
  0.8749989869999979  0.6250000000000000  0.0436139999999980   F   F   F
  0.8749989869999979  0.8749989869999979  0.0436139999999980   F   F   F
  0.0004357683053407  0.9900546361048487  0.2080850537098741   T   T   T
  0.0041492084825559  0.2512160692373200  0.2085735984974267   T   T   T
  0.0019301631465853  0.4937597167936468  0.2094676779752273   T   T   T
  0.0003927062014361  0.7456101613347308  0.2083735632498688   T   T   T
  0.2506474903664294  0.9969550564939171  0.2064120557177657   T   T   T
  0.2502192005903975  0.2229493185170129  0.2051708065043192   T   T   T
  0.2531597594949356  0.5041734736423470  0.2124039561916755   T   T   T
  0.2525052346386295  0.7476689139477147  0.2080988620695266   T   T   T
  0.5021535097613659 -0.0039147477447697  0.2070919660758873   T   T   T
  0.4982336793235219  0.2451804387535288  0.2073025191729111   T   T   T
  0.4985090886664289  0.4884060212862787  0.2092240395615793   T   T   T
  0.5014493046231477  0.7578470059907967  0.2051774952005030   T   T   T
  0.7518321264405450  0.9961587717188630  0.2083552949757431   T   T   T
  0.7511960760390481  0.2458316696189373  0.2095284396203563   T   T   T
  0.7478744770947036  0.4971080639886728  0.2105698219831741   T   T   T
  0.7492836144402085  0.7452269046961596  0.2089137639441890   T   T   T
  0.5434942421450126  0.3410224075601560  0.5052444882229323   T   T   T
  0.3396106028399978  0.4102161145016750  0.4908306015171381   T   T   T
  0.4624975804206764  0.6268986228877418  0.4520445824061105   T   T   T
  0.4832948350402714  0.3610198093580075  0.3516789594729249   T   T   T
  0.3873287476630010  0.3491680360253654  0.4139701350337457   T   T   T
  0.5467967285137234  0.3095466967969980  0.4183854108319036   T   T   T
  0.3573617622822078  0.4561742675097737  0.3464825738524127   T   T   T
  0.6238223352762642  0.4420488481761178  0.3723905630790547   T   T   T
  0.4880273855388124  0.5217150823150851  0.3732235057239180   T   T   T
  0.3567157155556298  0.5100658960568857  0.4235704273157615   T   T   T
  0.4877451083180020  0.4477558253130027  0.4480908447020013   F   F   F
  0.6496822784650328  0.4133236925573029  0.4519889226905813   T   T   T
  0.6015368714224552  0.5543171518424435  0.4297887718134645   T   T   T
