Ti O Au Cu
1.0
 15.213700294500   0.000000000000   0.000000000000
  0.000000000000  15.213700294500   0.000000000000
  0.000000000000   0.000000000000  29.000000000000
Ti O Au Cu
 64 127   3  10
Selective dynamics
Direct
  0.001216792098   0.992058645440   0.274275227842  T T T
  0.004366822899   0.247075261974   0.274674720414  T T T
  0.001822419363   0.496534105765   0.275694029907  T T T
  0.000485255160   0.745729793821   0.275044078054  T T T
  0.251296895047   0.989297503819   0.272437242161  T T T
  0.250429546887   0.213203115769   0.269444799957  T T T
  0.249469619603   0.536175677561   0.281065852033  T T T
  0.252572196678   0.761732544471   0.274210922999  T T T
  0.501656340233   0.008304112129   0.273995877436  T T T
  0.499543833622   0.237166415511   0.273128924249  T T T
  0.497480072929   0.480348459239   0.278987710283  T T T
  0.502087854489   0.798154594078   0.271777974317  T T T
  0.751562983291  -0.003015312045   0.275169377512  T T T
  0.751724300133   0.245483213772   0.276084892238  T T T
  0.747256035267   0.497949973448   0.276796236117  T T T
  0.749178241981   0.746641262230   0.274918854634  T T T
  0.124737181100   0.122677459992   0.111788338479  T T T
  0.125209088688   0.376131829998   0.111976742916  T T T
  0.124894912216   0.623441906124   0.111954756537  T T T
  0.125214071594   0.872474848757   0.111639905559  T T T
  0.375067001950   0.123188053801   0.111473476924  T T T
  0.374547613007   0.375576067482   0.111888544841  T T T
  0.375162057058   0.624405285649   0.111890843877  T T T
  0.374711082023   0.873478209554   0.111314508885  T T T
  0.625117121153   0.125020156743   0.111703083739  T T T
  0.625249593397   0.375697386485   0.112046941797  T T T
  0.624928119243   0.624578769789   0.112032150544  T T T
  0.625021297873   0.874824731261   0.111823954464  T T T
  0.875207170323   0.124910752205   0.112132664779  T T T
  0.874949109083   0.375290022017   0.112275149215  T T T
  0.875097638339   0.623802379664   0.112322002633  T T T
  0.875065181814   0.873630440652   0.112124856553  T T T
  0.000000000000   0.125000000000   0.030159000000  F F F
  0.000000000000   0.375000000000   0.030159000000  F F F
  0.000000000000   0.625000000000   0.030159000000  F F F
  0.000000000000   0.874998987000   0.030159000000  F F F
  0.250000000000   0.125000000000   0.030159000000  F F F
  0.250000000000   0.375000000000   0.030159000000  F F F
  0.250000000000   0.625000000000   0.030159000000  F F F
  0.250000000000   0.874998987000   0.030159000000  F F F
  0.500000000000   0.125000000000   0.030159000000  F F F
  0.500000000000   0.375000000000   0.030159000000  F F F
  0.500000000000   0.625000000000   0.030159000000  F F F
  0.500000000000   0.874998987000   0.030159000000  F F F
  0.749998987000   0.125000000000   0.030159000000  F F F
  0.749998987000   0.375000000000   0.030159000000  F F F
  0.749998987000   0.625000000000   0.030159000000  F F F
  0.749998987000   0.874998987000   0.030159000000  F F F
  0.124835639370  -0.001947994301   0.192964655998  T T T
  0.126499693722   0.250148015872   0.192383622855  T T T
  0.130476789348   0.499973632154   0.196565157869  T T T
  0.125949227456   0.748491373771   0.194447645778  T T T
  0.376895870432  -0.001783391467   0.192455932724  T T T
  0.374485884917   0.249109439239   0.192332767158  T T T
  0.375094431956   0.500387987662   0.196087194000  T T T
  0.378541188653   0.748847820764   0.193870409724  T T T
  0.627413628828   0.000053752242   0.193295727331  T T T
  0.626898443058   0.249731696139   0.194014227708  T T T
  0.620888290953   0.500142950803   0.195846931537  T T T
  0.624195145740   0.749654812127   0.193925885021  T T T
  0.875944723973  -0.000545984055   0.193949348725  T T T
  0.876464331030   0.250386898332   0.195105694735  T T T
  0.875115842454   0.499544100214   0.196404569189  T T T
  0.875216944092   0.749673520252   0.194893950635  T T T
  0.000000000000   0.000000000000   0.016705001000  F F F
  0.000000000000   0.250000000000   0.016705001000  F F F
  0.000000000000   0.500000000000   0.016705001000  F F F
  0.000000000000   0.749998987000   0.016705001000  F F F
  0.250000000000   0.000000000000   0.016705001000  F F F
  0.250000000000   0.250000000000   0.016705001000  F F F
  0.250000000000   0.500000000000   0.016705001000  F F F
  0.250000000000   0.749998987000   0.016705001000  F F F
  0.500000000000   0.000000000000   0.016705001000  F F F
  0.500000000000   0.250000000000   0.016705001000  F F F
  0.500000000000   0.500000000000   0.016705001000  F F F
  0.500000000000   0.749998987000   0.016705001000  F F F
  0.749998987000   0.000000000000   0.016705001000  F F F
  0.749998987000   0.250000000000   0.016705001000  F F F
  0.749998987000   0.500000000000   0.016705001000  F F F
  0.749998987000   0.749998987000   0.016705001000  F F F
  0.120198747671   0.122528731667   0.180412806104  T T T
  0.135178174877   0.374156008662   0.181641777722  T T T
  0.126718469125   0.623655789396   0.180725379935  T T T
  0.127020996095   0.873108850294   0.180198994877  T T T
  0.379334555473   0.122460468701   0.179851464911  T T T
  0.367486019298   0.373020137400   0.182074409869  T T T
  0.380591378499   0.624600507723   0.180939149285  T T T
  0.374033426758   0.874259905350   0.179659627568  T T T
  0.626642607395   0.124814170736   0.180175960210  T T T
  0.626148280090   0.373784649953   0.181438652058  T T T
  0.621009573074   0.624560330119   0.181401415817  T T T
  0.628371677324   0.875182873214   0.180141961676  T T T
  0.878920805333   0.124827421786   0.181147116027  T T T
  0.874005731505   0.374462942415   0.181331112337  T T T
  0.874581843282   0.623467566918   0.181444973559  T T T
  0.874584210603   0.873701319291   0.180509512982  T T T
  0.000000000000   0.125000000000   0.098587997000  F F F
  0.000000000000   0.375000000000   0.098587997000  F F F
  0.000000000000   0.625000000000   0.098587997000  F F F
  0.000000000000   0.874998987000   0.098587997000  F F F
  0.250000000000   0.125000000000   0.098587997000  F F F
  0.250000000000   0.375000000000   0.098587997000  F F F
  0.250000000000   0.625000000000   0.098587997000  F F F
  0.250000000000   0.874998987000   0.098587997000  F F F
  0.500000000000   0.125000000000   0.098587997000  F F F
  0.500000000000   0.375000000000   0.098587997000  F F F
  0.500000000000   0.625000000000   0.098587997000  F F F
  0.500000000000   0.874998987000   0.098587997000  F F F
  0.749998987000   0.125000000000   0.098587997000  F F F
  0.749998987000   0.375000000000   0.098587997000  F F F
  0.749998987000   0.625000000000   0.098587997000  F F F
  0.749998987000   0.874998987000   0.098587997000  F F F
  0.126695404780  -0.000843667775   0.261615792543  T T T
  0.135499506733   0.257552404449   0.264197212375  T T T
  0.126069524362   0.516702292244   0.263529634338  T T T
  0.126467277425   0.757959142401   0.262055240969  T T T
  0.375700016840  -0.001171959736   0.260486780117  T T T
  0.368060308070   0.250083329794   0.263592319021  T T T
  0.380323459286   0.520849159280   0.265735762995  T T T
  0.380073021224   0.763489745674   0.262650747600  T T T
  0.626648901687   0.010713025891   0.261764941274  T T T
  0.623520838395   0.247407530457   0.263079953766  T T T
  0.618684647983   0.508024588394   0.265302138330  T T T
  0.621946292897   0.758292437943   0.263918178009  T T T
  0.876566297857   0.006495478747   0.263134699371  T T T
  0.877648090713   0.256501189538   0.263340491447  T T T
  0.874510939236   0.503011320876   0.264631739809  T T T
  0.874842451742   0.756717751963   0.263052716367  T T T
  0.125891461130  -0.001367605830   0.125439275639  T T T
  0.125586639529   0.249447105167   0.126213787534  T T T
  0.125612174181   0.499032689631   0.127251416305  T T T
  0.125257336912   0.748467311395   0.125925520104  T T T
  0.373981018493  -0.001190747174   0.124600111067  T T T
  0.374666011450   0.249769907395   0.125931991538  T T T
  0.374262282986   0.499335368353   0.127637218079  T T T
  0.374009331933   0.748794630129   0.125566240005  T T T
  0.625192796137  -0.000030351791   0.125374540543  T T T
  0.624903216469   0.250155483023   0.126286481396  T T T
  0.624342127553   0.500123546219   0.127337375541  T T T
  0.625872162576   0.749628190931   0.126065537969  T T T
  0.875296350738  -0.000209516939   0.126283379376  T T T
  0.875723015040   0.249677234276   0.126878414608  T T T
  0.875643426594   0.499421152264   0.127363692010  T T T
  0.875363021602   0.749060033779   0.126456771259  T T T
  0.006782631883   0.131988959897   0.289686833185  T T T
  0.006324822125   0.381003546418   0.292488331442  T T T
  0.000185075474   0.632804443612   0.294083619424  T T T
  0.000841677022   0.879093098293   0.293266842759  T T T
  0.250075881126   0.107563059175   0.296030512650  T T T
  0.243968776540   0.461020612056   0.327082750640  T T T
  0.253774386977   0.653012758851   0.301581858158  T T T
  0.251647946637   0.878598873452   0.297194587256  T T T
  0.493184231278   0.124631268910   0.295407274682  T T T
  0.493091463496   0.361941378724   0.287562239639  T T T
  0.503558485197   0.903636255939   0.305211084727  T T T
  0.753514055645   0.133045610424   0.294896615019  T T T
  0.742654724297   0.381517677485   0.295200677540  T T T
  0.748562846890   0.631027663096   0.292766421413  T T T
  0.749278544624   0.882672754050   0.292791167556  T T T
  0.125000000000   0.125000000000   0.043614000000  F F F
  0.125000000000   0.375000000000   0.043614000000  F F F
  0.125000000000   0.625000000000   0.043614000000  F F F
  0.125000000000   0.874998987000   0.043614000000  F F F
  0.375000000000   0.125000000000   0.043614000000  F F F
  0.375000000000   0.375000000000   0.043614000000  F F F
  0.375000000000   0.625000000000   0.043614000000  F F F
  0.375000000000   0.874998987000   0.043614000000  F F F
  0.625000000000   0.125000000000   0.043614000000  F F F
  0.625000000000   0.375000000000   0.043614000000  F F F
  0.625000000000   0.625000000000   0.043614000000  F F F
  0.625000000000   0.874998987000   0.043614000000  F F F
  0.874998987000   0.125000000000   0.043614000000  F F F
  0.874998987000   0.375000000000   0.043614000000  F F F
  0.874998987000   0.625000000000   0.043614000000  F F F
  0.874998987000   0.874998987000   0.043614000000  F F F
  0.000435768305   0.990054636105   0.208085053710  T T T
  0.004149208483   0.251216069237   0.208573598497  T T T
  0.001930163147   0.493759716794   0.209467677975  T T T
  0.000392706201   0.745610161335   0.208373563250  T T T
  0.250647490366   0.996955056494   0.206412055718  T T T
  0.250219200590   0.222949318517   0.205170806504  T T T
  0.253159759495   0.504173473642   0.212403956192  T T T
  0.252505234639   0.747668913948   0.208098862070  T T T
  0.502153509761  -0.003914747745   0.207091966076  T T T
  0.498233679324   0.245180438754   0.207302519173  T T T
  0.498509088666   0.488406021286   0.209224039562  T T T
  0.501449304623   0.757847005991   0.205177495201  T T T
  0.751832126441   0.996158771719   0.208355294976  T T T
  0.751196076039   0.245831669619   0.209528439620  T T T
  0.747874477095   0.497108063989   0.210569821983  T T T
  0.749283614440   0.745226904696   0.208913763944  T T T
  0.543494242145   0.341022407560   0.505244488223  T T T
  0.339610602840   0.410216114502   0.490830601517  T T T
  0.462497580421   0.626898622888   0.452044582406  T T T
  0.483294835040   0.361019809358   0.351678959473  T T T
  0.387328747663   0.349168036025   0.413970135034  T T T
  0.546796728514   0.309546696797   0.418385410832  T T T
  0.357361762282   0.456174267510   0.346482573852  T T T
  0.623822335276   0.442048848176   0.372390563079  T T T
  0.488027385539   0.521715082315   0.373223505724  T T T
  0.356715715556   0.510065896057   0.423570427316  T T T
  0.487745108318   0.447755825313   0.448090844702  F F F
  0.649682278465   0.413323692557   0.451988922691  T T T
  0.601536871422   0.554317151842   0.429788771813  T T T
