%chk=4dTS-AuCu.chk
%nprocshared=16
%mem=6GB
# opt=(calcfc,noeigen,ts) freq=noraman upbepbe/gen empiricaldispersion=gd3bj pseudo=read scf=maxcycles=1000

4dTS-AuCu

0 2
 Au                -0.26852900    2.60212600   -0.12617100
 Au                 2.17428300   -0.03994300   -1.43869100
 Au                 2.08700600    0.11732200    1.52179100
 Cu                -2.15610300   -0.79260100   -1.70123500
 Cu                -0.42675800    0.85466800   -2.20211200
 Cu                -2.31461300    1.14102200    0.03599400
 Cu                 0.14448000   -1.58115200   -2.04528800
 Cu                -2.16236600   -0.69237400    1.67442900
 Cu                -1.03903700   -2.52870400    0.07767600
 Cu                 1.44275200   -2.20686700    0.01544700
 Cu                -0.07786800   -0.14314200   -0.02018100
 Cu                -0.38787000    1.02398600    2.09573200
 Cu                 0.16749100   -1.48893900    2.09239700
 O                 -3.68936400   -1.44921900   -0.49104400
 O                 -2.98550500   -2.19163400    0.57842700
 O                 -5.10065400    0.36586100    0.17954600
 C                 -3.95616700    0.08800500    0.10071000

Au Cu 0
LANL2DZ
****
O C 0
def2tzvp
****

Au Cu 0
LANL2DZ



