Ti O Cu
1.0
 15.213700294500   0.000000000000   0.000000000000
  0.000000000000  15.213700294500   0.000000000000
  0.000000000000   0.000000000000  29.000000000000
Ti O Cu
 64 127  13
Selective dynamics
Direct
  0.000717938908   0.997732544126   0.274635517267  T T T
  0.000409437663   0.243913439984   0.275395885036  T T T
  0.998707632532   0.492776639017   0.276327613442  T T T
  0.000014174992   0.744986916871   0.274360026224  T T T
  0.250138757561   0.011712161905   0.274244017997  T T T
  0.250533654336   0.238310310155   0.274554749240  T T T
  0.247804092833   0.457414453516   0.274963194302  T T T
  0.248022697643   0.787366099772   0.278934622090  T T T
  0.500798028296   0.010267337948   0.273872941181  T T T
  0.500647676159   0.227975450221   0.271326566948  T T T
  0.499518519834   0.451772864205   0.272436359191  T T T
  0.499086570196   0.793466556098   0.275794208491  T T T
  0.751383784142   0.008718563416   0.274366573581  T T T
  0.750537525918   0.235510548204   0.274439531755  T T T
  0.747742588787   0.457503187757   0.276579345475  T T T
  0.750644164639   0.783604910314   0.277059811646  T T T
  0.124872742865   0.125124004091   0.111663122650  T T T
  0.124790179860   0.375728634264   0.112178323898  T T T
  0.124936787757   0.625108390859   0.112364796893  T T T
  0.124878146475   0.874278969759   0.111979452099  T T T
  0.374894139858   0.124206901820   0.111030353177  T T T
  0.375029512342   0.374865788300   0.111741463728  T T T
  0.374864677765   0.626921520579   0.112062329223  T T T
  0.375092155651   0.874951771688   0.111526612071  T T T
  0.625126250102   0.123875789569   0.111103646795  T T T
  0.624926559456   0.374547306443   0.111731406150  T T T
  0.625196453087   0.625793174102   0.112123815523  T T T
  0.624996391188   0.874387265088   0.111567879013  T T T
  0.875070096365   0.124769136594   0.111700177442  T T T
  0.875210486885   0.375503119797   0.112219881782  T T T
  0.875086537109   0.624394510318   0.112446237151  T T T
  0.875133954735   0.873920319171   0.112092726525  T T T
  0.000000000000   0.125000000000   0.030159000000  F F F
  0.000000000000   0.375000000000   0.030159000000  F F F
  0.000000000000   0.625000000000   0.030159000000  F F F
  0.000000000000   0.874998987000   0.030159000000  F F F
  0.250000000000   0.125000000000   0.030159000000  F F F
  0.250000000000   0.375000000000   0.030159000000  F F F
  0.250000000000   0.625000000000   0.030159000000  F F F
  0.250000000000   0.874998987000   0.030159000000  F F F
  0.500000000000   0.125000000000   0.030159000000  F F F
  0.500000000000   0.375000000000   0.030159000000  F F F
  0.500000000000   0.625000000000   0.030159000000  F F F
  0.500000000000   0.874998987000   0.030159000000  F F F
  0.749998987000   0.125000000000   0.030159000000  F F F
  0.749998987000   0.375000000000   0.030159000000  F F F
  0.749998987000   0.625000000000   0.030159000000  F F F
  0.749998987000   0.874998987000   0.030159000000  F F F
  0.124977712589   0.000515236398   0.193354460773  T T T
  0.124525366984   0.250502709037   0.193633807640  T T T
  0.125867679026   0.501127179159   0.195905413710  T T T
  0.127905185692   0.750459910912   0.195595030155  T T T
  0.375283573581   0.000582027329   0.192907402689  T T T
  0.374274879159   0.249371377842   0.192155264698  T T T
  0.374029713924   0.501741901094   0.193072310465  T T T
  0.374537799639   0.752031493974   0.195816078533  T T T
  0.626438165251  -0.000090364320   0.193008942798  T T T
  0.626815196241   0.248445861146   0.192275219578  T T T
  0.623820102084   0.500340393404   0.193918356533  T T T
  0.623628183600   0.751052900338   0.195470362571  T T T
  0.876428334347  -0.000025439853   0.193628846543  T T T
  0.876302984037   0.249825114721   0.193708078438  T T T
  0.870374525483   0.500193055595   0.196433798735  T T T
  0.872609471912   0.749647438679   0.195421938990  T T T
  0.000000000000   0.000000000000   0.016705001000  F F F
  0.000000000000   0.250000000000   0.016705001000  F F F
  0.000000000000   0.500000000000   0.016705001000  F F F
  0.000000000000   0.749998987000   0.016705001000  F F F
  0.250000000000   0.000000000000   0.016705001000  F F F
  0.250000000000   0.250000000000   0.016705001000  F F F
  0.250000000000   0.500000000000   0.016705001000  F F F
  0.250000000000   0.749998987000   0.016705001000  F F F
  0.500000000000   0.000000000000   0.016705001000  F F F
  0.500000000000   0.250000000000   0.016705001000  F F F
  0.500000000000   0.500000000000   0.016705001000  F F F
  0.500000000000   0.749998987000   0.016705001000  F F F
  0.749998987000   0.000000000000   0.016705001000  F F F
  0.749998987000   0.250000000000   0.016705001000  F F F
  0.749998987000   0.500000000000   0.016705001000  F F F
  0.749998987000   0.749998987000   0.016705001000  F F F
  0.125144819373   0.125244744461   0.179737583120  T T T
  0.123136465781   0.375009917249   0.181025886618  T T T
  0.127855796944   0.624358098182   0.181785678199  T T T
  0.125677602123   0.874990912399   0.180305466333  T T T
  0.373795754992   0.124583787161   0.178817813725  T T T
  0.376894104149   0.373881899315   0.180465763028  T T T
  0.373897230534   0.625606999809   0.182144296624  T T T
  0.377417488595   0.876619822521   0.179685666771  T T T
  0.627920043856   0.123866570263   0.178893246701  T T T
  0.622964064779   0.372835433928   0.180232425599  T T T
  0.624975352606   0.624698851347   0.182373017537  T T T
  0.623651168579   0.875785679697   0.179595061773  T T T
  0.875272600631   0.124680080752   0.179736955290  T T T
  0.875293669569   0.374548546491   0.181172823928  T T T
  0.870749569569   0.623750897756   0.182028101434  T T T
  0.874785441916   0.874247382113   0.180499410396  T T T
  0.000000000000   0.125000000000   0.098587997000  F F F
  0.000000000000   0.375000000000   0.098587997000  F F F
  0.000000000000   0.625000000000   0.098587997000  F F F
  0.000000000000   0.874998987000   0.098587997000  F F F
  0.250000000000   0.125000000000   0.098587997000  F F F
  0.250000000000   0.375000000000   0.098587997000  F F F
  0.250000000000   0.625000000000   0.098587997000  F F F
  0.250000000000   0.874998987000   0.098587997000  F F F
  0.500000000000   0.125000000000   0.098587997000  F F F
  0.500000000000   0.375000000000   0.098587997000  F F F
  0.500000000000   0.625000000000   0.098587997000  F F F
  0.500000000000   0.874998987000   0.098587997000  F F F
  0.749998987000   0.125000000000   0.098587997000  F F F
  0.749998987000   0.375000000000   0.098587997000  F F F
  0.749998987000   0.625000000000   0.098587997000  F F F
  0.749998987000   0.874998987000   0.098587997000  F F F
  0.125410168427   0.011306143909   0.260844582294  T T T
  0.126141519064   0.249972439100   0.261960692521  T T T
  0.128469051825   0.496490469574   0.265867981039  T T T
  0.123870898739   0.764857891634   0.262887950997  T T T
  0.375777704131   0.012071482962   0.260354619582  T T T
  0.376092128198   0.238420877577   0.260044596127  T T T
  0.374875098052   0.487121796294   0.265404379123  T T T
  0.375572488500   0.782244692397   0.262032923211  T T T
  0.625798210254   0.008582073683   0.260939552906  T T T
  0.625316662197   0.236076937081   0.260030861985  T T T
  0.622598120035   0.479168881116   0.262536637645  T T T
  0.623267076274   0.782236163941   0.261494829048  T T T
  0.875870027350   0.009915640977   0.261268871637  T T T
  0.874676904982   0.248731365235   0.262101767054  T T T
  0.868763875195   0.494359277427   0.266681628798  T T T
  0.875053981800   0.761819023739   0.263206556415  T T T
  0.124742400877  -0.000302957172   0.125198339551  T T T
  0.124909467205   0.250789093070   0.125688178069  T T T
  0.124060504958   0.500592910510   0.127360689695  T T T
  0.125402826203   0.749267153493   0.126655971439  T T T
  0.375292049849  -0.000247998843   0.124570688054  T T T
  0.374782018032   0.250314292388   0.124502492826  T T T
  0.374577475314   0.501075818876   0.126546084871  T T T
  0.375406810588   0.750053771371   0.126767649715  T T T
  0.625081400649  -0.000717799969   0.124713474442  T T T
  0.625381819690   0.249625922558   0.124476346012  T T T
  0.624908732055   0.500224312702   0.126421407967  T T T
  0.624510039272   0.749356789710   0.126798708377  T T T
  0.875523301402   0.999314261864   0.125329633222  T T T
  0.875587058766   0.250588922224   0.125668630148  T T T
  0.874757283616   0.500066533515   0.127786106164  T T T
  0.875126936730   0.748614675172   0.126787005176  T T T
  0.000541016066   0.130950484183   0.294777280391  T T T
  0.000071597093   0.376683219917   0.293382677393  T T T
 -0.000513653382   0.628428157414   0.290616001959  T T T
 -0.000159962005   0.885022325946   0.292457220452  T T T
  0.249704435872   0.126860398993   0.299071366147  T T T
  0.256554156245   0.349113748914   0.303005831530  T T T
  0.255278431316   0.709326444713   0.323045334916  T T T
  0.249090262783   0.903592617983   0.301029731575  T T T
  0.501169843042   0.121281614342   0.300587966829  T T T
  0.502188148204   0.339870892392   0.299610734747  T T T
  0.499033021745   0.902532570347   0.302573742208  T T T
  0.751796791256   0.124041272107   0.298884428703  T T T
  0.743883163319   0.348277337445   0.302422578120  T T T
  0.734850161107   0.701484587776   0.320777472948  T T T
  0.752515684291   0.897704125634   0.300502055953  T T T
  0.125000000000   0.125000000000   0.043614000000  F F F
  0.125000000000   0.375000000000   0.043614000000  F F F
  0.125000000000   0.625000000000   0.043614000000  F F F
  0.125000000000   0.874998987000   0.043614000000  F F F
  0.375000000000   0.125000000000   0.043614000000  F F F
  0.375000000000   0.375000000000   0.043614000000  F F F
  0.375000000000   0.625000000000   0.043614000000  F F F
  0.375000000000   0.874998987000   0.043614000000  F F F
  0.625000000000   0.125000000000   0.043614000000  F F F
  0.625000000000   0.375000000000   0.043614000000  F F F
  0.625000000000   0.625000000000   0.043614000000  F F F
  0.625000000000   0.874998987000   0.043614000000  F F F
  0.874998987000   0.125000000000   0.043614000000  F F F
  0.874998987000   0.375000000000   0.043614000000  F F F
  0.874998987000   0.625000000000   0.043614000000  F F F
  0.874998987000   0.874998987000   0.043614000000  F F F
  0.000651672157   0.995611725701   0.207202377077  T T T
  0.000309543210   0.245373671462   0.208340704144  T T T
 -0.001760864152   0.497800945676   0.211139108581  T T T
 -0.000351431363   0.742687996064   0.208346856475  T T T
  0.250545128811  -0.000496065996   0.207113230896  T T T
  0.249981015826   0.248376155778   0.207358936076  T T T
  0.250999197174   0.492510433545   0.208392599359  T T T
  0.250856812344   0.751517675531   0.209967849471  T T T
  0.500874989520   0.001613516373   0.207123311143  T T T
  0.500592243433   0.242458459700   0.205401294011  T T T
  0.498699321085   0.495289627224   0.208353527558  T T T
  0.499480838234   0.749042477943   0.210418793172  T T T
  0.750875226065  -0.001592065782   0.207599573395  T T T
  0.750963846671   0.246661589310   0.207432134410  T T T
  0.747338900385   0.492541273156   0.209452977198  T T T
  0.748594971480   0.751283111574   0.209658661945  T T T
  0.382986948873   0.569919433784   0.318486853770  T T T
  0.364576445008   0.717308379899   0.350086549472  T T T
  0.508805699960   0.669683409325   0.329682247437  T T T
  0.526572296414   0.523468199295   0.346293553494  T T T
  0.499146958708   0.755465283019   0.393405263228  T T T
  0.592531137225   0.622648663051   0.401275339962  T T T
  0.635858268304   0.750021987372   0.355646518371  T T T
  0.397423541707   0.453533456584   0.376862156903  T T T
  0.431515294273   0.607077726684   0.397939091302  T T T
  0.532196973020   0.370596075573   0.362269463038  T T T
  0.526895413107   0.478096193439   0.422457114999  T T T
  0.659829054531   0.469897997999   0.374849433252  T T T
  0.662729126879   0.598265635590   0.326091071238  T T T
