Au C Cu O Ti
1.0
 15.213700294500   0.000000000000   0.000000000000
  0.000000000000  15.213700294500   0.000000000000
  0.000000000000   0.000000000000  29.000000000000
Au C Cu O Ti
  3   1  10 130  64
Selective dynamics
Direct
  0.497421080220   0.196117747925   0.439573957590  T T T
  0.373699736466   0.328950793525   0.461375360994  T T T
  0.524310513369   0.543429526332   0.456915627046  T T T
  0.424393257333   0.728741027087   0.431141317789  T T T
  0.500780537315   0.404130019418   0.338757921851  T T T
  0.423820946446   0.290473287482   0.380464272926  T T T
  0.506336904862   0.160485373717   0.355622000452  T T T
  0.340561107878   0.404264265434   0.346970972372  T T T
  0.663167143014   0.383295477882   0.335845087659  T T T
  0.497456355824   0.563691090018   0.360202525914  T T T
  0.429974488688   0.449771734579   0.408327582668  T T T
  0.531944458453   0.365809713804   0.455834793482  T T T
  0.581036670623   0.292762242021   0.384142150175  T T T
  0.594840481586   0.455212894606   0.396592506949  T T T
  0.000000000000   0.000000000000   0.016705001000  F F F
  0.000000000000   0.250000000000   0.016705001000  F F F
  0.000000000000   0.500000000000   0.016705001000  F F F
  0.000000000000   0.749998987000   0.016705001000  F F F
  0.250000000000   0.000000000000   0.016705001000  F F F
  0.250000000000   0.250000000000   0.016705001000  F F F
  0.250000000000   0.500000000000   0.016705001000  F F F
  0.250000000000   0.749998987000   0.016705001000  F F F
  0.500000000000   0.000000000000   0.016705001000  F F F
  0.500000000000   0.250000000000   0.016705001000  F F F
  0.500000000000   0.500000000000   0.016705001000  F F F
  0.500000000000   0.749998987000   0.016705001000  F F F
  0.749998987000   0.000000000000   0.016705001000  F F F
  0.749998987000   0.250000000000   0.016705001000  F F F
  0.749998987000   0.500000000000   0.016705001000  F F F
  0.749998987000   0.749998987000   0.016705001000  F F F
  0.120770498729   0.123925607063   0.180563748962  T T T
  0.131137672380   0.373954489494   0.181412443734  T T T
  0.126153336997   0.625300686536   0.180145799507  T T T
  0.123317169788   0.874607599355   0.179798491803  T T T
  0.378227546236   0.123332601063   0.180423061403  T T T
  0.370901507023   0.374171394846   0.181740057418  T T T
  0.372373036921   0.626147859330   0.179967136943  T T T
  0.376964514899   0.874354074395   0.179821642874  T T T
  0.623571619389   0.124445251508   0.180824401665  T T T
  0.624527862909   0.374344960740   0.181468490281  T T T
  0.625424796664   0.625738458417   0.179946326241  T T T
  0.623907639680   0.874592498408   0.180292882692  T T T
  0.876321919014   0.125136004845   0.181022668786  T T T
  0.872043148593   0.374160930806   0.181101512775  T T T
  0.875386739650   0.624723530714   0.180380812869  T T T
  0.875136437938   0.874781901770   0.180275661515  T T T
  0.000000000000   0.125000000000   0.098587997000  F F F
  0.000000000000   0.375000000000   0.098587997000  F F F
  0.000000000000   0.625000000000   0.098587997000  F F F
  0.000000000000   0.874998987000   0.098587997000  F F F
  0.250000000000   0.125000000000   0.098587997000  F F F
  0.250000000000   0.375000000000   0.098587997000  F F F
  0.250000000000   0.625000000000   0.098587997000  F F F
  0.250000000000   0.874998987000   0.098587997000  F F F
  0.500000000000   0.125000000000   0.098587997000  F F F
  0.500000000000   0.375000000000   0.098587997000  F F F
  0.500000000000   0.625000000000   0.098587997000  F F F
  0.500000000000   0.874998987000   0.098587997000  F F F
  0.749998987000   0.125000000000   0.098587997000  F F F
  0.749998987000   0.375000000000   0.098587997000  F F F
  0.749998987000   0.625000000000   0.098587997000  F F F
  0.749998987000   0.874998987000   0.098587997000  F F F
  0.125405775302   0.001103294841   0.261920413109  T T T
  0.132577811125   0.256470207315   0.265344154260  T T T
  0.123870196222   0.518269579742   0.261864975573  T T T
  0.124490568913   0.759437245605   0.261734122504  T T T
  0.374496821488   0.994268831838   0.261511937817  T T T
  0.369266020691   0.252855171312   0.265156659025  T T T
  0.375505832901   0.523232995010   0.262116928200  T T T
  0.375500562507   0.756466837301   0.262479419487  T T T
  0.625330565098  -0.000889864021   0.262466730707  T T T
  0.622507355088   0.249525746866   0.264347937637  T T T
  0.623917602767   0.515507648628   0.261561198310  T T T
  0.624669091099   0.753907755896   0.262930667642  T T T
  0.874891635753   0.005561362279   0.262964462470  T T T
  0.874558145869   0.255066228332   0.264319636673  T T T
  0.875514974122   0.507825971500   0.262779072190  T T T
  0.874836466168   0.757284289931   0.262170322619  T T T
  0.125289115020   0.999984720490   0.125427987119  T T T
  0.124697592842   0.250144998895   0.126674721779  T T T
  0.124632069739   0.499510018054   0.126314753188  T T T
  0.125044179598   0.749721294869   0.125445956929  T T T
  0.374656517126   0.999583105991   0.125251245779  T T T
  0.374786016368   0.250003152248   0.126465872236  T T T
  0.374349672532   0.499618081414   0.126341251927  T T T
  0.375436316548   0.749829125382   0.125522281572  T T T
  0.625467331411   0.000023203371   0.125915449294  T T T
  0.624986453059   0.249797245459   0.126824822944  T T T
  0.625424616684   0.499522318361   0.125833544117  T T T
  0.624936181274   0.750132845725   0.125777531046  T T T
  0.875026194723   0.000397271650   0.126160130042  T T T
  0.875520339375   0.249991463407   0.126975578276  T T T
  0.875578094443   0.499436077932   0.126171943292  T T T
  0.874767453820   0.749886817493   0.125796862533  T T T
  0.003159448304   0.133110916449   0.292749829784  T T T
  0.003369752636   0.381974725354   0.291997805923  T T T
  0.998846938576   0.633495811890   0.292986606606  T T T
  0.999276382941   0.881966677549   0.293686239324  T T T
  0.251101848798   0.109892125528   0.294935014736  T T T
  0.244578231461   0.448844361361   0.319656142365  T T T
  0.248496159935   0.649810192540   0.300863800386  T T T
  0.249173947937   0.877370879269   0.297529745337  T T T
  0.497772801457   0.110653822194   0.298437319543  T T T
  0.498224590407   0.382772338001   0.275059722740  T T T
  0.500944947080   0.875570741254   0.296095119660  T T T
  0.749251259531   0.126003889901   0.292477111017  T T T
  0.748663506908   0.386597055087   0.292220217677  T T T
  0.751210365415   0.632799226262   0.293354934873  T T T
  0.750572508370   0.878110464431   0.293002814739  T T T
  0.125000000000   0.125000000000   0.043614000000  F F F
  0.125000000000   0.375000000000   0.043614000000  F F F
  0.125000000000   0.625000000000   0.043614000000  F F F
  0.125000000000   0.874998987000   0.043614000000  F F F
  0.375000000000   0.125000000000   0.043614000000  F F F
  0.375000000000   0.375000000000   0.043614000000  F F F
  0.375000000000   0.625000000000   0.043614000000  F F F
  0.375000000000   0.874998987000   0.043614000000  F F F
  0.625000000000   0.125000000000   0.043614000000  F F F
  0.625000000000   0.375000000000   0.043614000000  F F F
  0.625000000000   0.625000000000   0.043614000000  F F F
  0.625000000000   0.874998987000   0.043614000000  F F F
  0.874998987000   0.125000000000   0.043614000000  F F F
  0.874998987000   0.375000000000   0.043614000000  F F F
  0.874998987000   0.625000000000   0.043614000000  F F F
  0.874998987000   0.874998987000   0.043614000000  F F F
  0.999464917659   0.994868580531   0.208370848470  T T T
  0.001767779701   0.248893908785   0.209894844953  T T T
  0.000625416183   0.493083121180   0.207962566228  T T T
  0.999836580947   0.745402892472   0.207769060851  T T T
  0.249688331415   0.994678596403   0.206858452048  T T T
  0.250039540978   0.229023587221   0.206992143777  T T T
  0.250218014805   0.501347099696   0.209906742945  T T T
  0.250215525833   0.751603050651   0.208044572100  T T T
  0.500363620927   0.998530032870   0.208254325472  T T T
  0.497595080960   0.247588796018   0.209150169443  T T T
  0.498936175685   0.505770662688   0.205578255063  T T T
  0.500028013933   0.749043740384   0.209539760561  T T T
  0.750231908876   0.996241136930   0.208089344638  T T T
  0.749028106056   0.243358094532   0.209409569191  T T T
  0.749841816646   0.501851201767   0.208215948148  T T T
  0.749609935216   0.748959969069   0.208251862208  T T T
  0.432019933244   0.732433081499   0.390805266783  T T T
  0.500792212091   0.637659165299   0.302413116412  T T T
  0.416294457855   0.726171676786   0.471410372491  T T T
  0.000031341440   0.994958251806   0.275118248188  T T T
  0.001723644085   0.247975934526   0.275967391278  T T T
  0.001295308595   0.497426533857   0.274354368003  T T T
 -0.000126823852   0.746514387769   0.274682444861  T T T
  0.249852892190   0.988613795013   0.272943603033  T T T
  0.250132832145   0.217605786484   0.271660216564  T T T
  0.248444430300   0.533241881608   0.278589102567  T T T
  0.249552102603   0.759792501971   0.274786747156  T T T
  0.499951011950   0.995909532844   0.275195700651  T T T
  0.497699550466   0.262964722653   0.276450612426  T T T
  0.499501528344   0.522947146384   0.273811282524  T T T
  0.499781323084   0.758843716108   0.276477769939  T T T
  0.750156260635   0.994240774477   0.274206832676  T T T
  0.749555539140   0.240124479388   0.275276616924  T T T
  0.750461651574   0.510509911296   0.274026202355  T T T
  0.750186316866   0.751610391913   0.274353721663  T T T
  0.124748500207   0.124289098784   0.111821150661  T T T
  0.125157979710   0.375894417366   0.111878559496  T T T
  0.124978905068   0.624617280214   0.111801734319  T T T
  0.124965715241   0.874277606603   0.111531223385  T T T
  0.375123724949   0.123848684503   0.111672903612  T T T
  0.374830553412   0.375954785461   0.111953699353  T T T
  0.374871197516   0.624847763029   0.111776213899  T T T
  0.375001672484   0.874121312046   0.111431548483  T T T
  0.625049387327   0.124732551881   0.111877245448  T T T
  0.625090805713   0.374760791227   0.112024787924  T T T
  0.625059690180   0.624986706169   0.111750665718  T T T
  0.624998527520   0.874750652318   0.111702798604  T T T
  0.875069510897   0.125251420095   0.112036637040  T T T
  0.874837697494   0.374690381404   0.111985425040  T T T
  0.875024464806   0.624698895064   0.111875115127  T T T
  0.874980104489   0.874848068799   0.111842912866  T T T
  0.000000000000   0.125000000000   0.030159000000  F F F
  0.000000000000   0.375000000000   0.030159000000  F F F
  0.000000000000   0.625000000000   0.030159000000  F F F
  0.000000000000   0.874998987000   0.030159000000  F F F
  0.250000000000   0.125000000000   0.030159000000  F F F
  0.250000000000   0.375000000000   0.030159000000  F F F
  0.250000000000   0.625000000000   0.030159000000  F F F
  0.250000000000   0.874998987000   0.030159000000  F F F
  0.500000000000   0.125000000000   0.030159000000  F F F
  0.500000000000   0.375000000000   0.030159000000  F F F
  0.500000000000   0.625000000000   0.030159000000  F F F
  0.500000000000   0.874998987000   0.030159000000  F F F
  0.749998987000   0.125000000000   0.030159000000  F F F
  0.749998987000   0.375000000000   0.030159000000  F F F
  0.749998987000   0.625000000000   0.030159000000  F F F
  0.749998987000   0.874998987000   0.030159000000  F F F
  0.123540524347   0.999550673224   0.193404982966  T T T
  0.125122034502   0.250476034520   0.193658991702  T T T
  0.128092042741   0.500809399892   0.195020122267  T T T
  0.124669927658   0.750280103178   0.193748500408  T T T
  0.376160986688   0.998772359938   0.193288940868  T T T
  0.375721521685   0.249446646910   0.193225120305  T T T
  0.373003181805   0.500804582571   0.194856038903  T T T
  0.375365975073   0.749845450780   0.193931579548  T T T
  0.624648223562   0.999424140654   0.193985692485  T T T
  0.622817541496   0.249172121380   0.194871956267  T T T
  0.622924926511   0.500191121150   0.193793882853  T T T
  0.624327444933   0.749730692135   0.194023361303  T T T
  0.875419081033   0.000285545958   0.194106202940  T T T
  0.874789190916   0.250402351148   0.195308572737  T T T
  0.875485420238   0.500095913794   0.194307591276  T T T
  0.875370413288   0.750204013067   0.193895237729  T T T
